&control
    calculation = "scf"
    prefix = "qe_structure"
    pseudo_dir = "./pseudopotentials/"
    outdir = "./output/"
/

&system
    ibrav = 0
    nat = 24
    ntyp = 2
    ecutwfc = 50
    ecutrho = 200
/

&electrons
    diagonalization = "david"
    conv_thr = 1.0d-8
    mixing_beta = 0.7
/

&ions
/

&cell
/

ATOMIC_SPECIES
C   12.011   c.UPF
Si   28.085   si.UPF

ATOMIC_POSITIONS crystal
Si      1.000000      0.666666      0.264738
Si      0.666666      1.000000      0.264738
Si      0.333333      0.333333      0.264738
C       0.333333      0.333333      0.211636
C       1.000000      0.666666      0.211636
C       0.666666      1.000000      0.211636
Si      0.000000      0.000000      0.194148
Si      0.333333      0.666667      0.194148
Si      0.666667      0.333333      0.194148
C       0.000000      0.000000      0.141206
C       0.666667      0.333333      0.141206
C       0.333333      0.666667      0.141206
Si      0.333334      0.000000      0.123531
Si      0.000000      0.333334      0.123531
Si      0.666667      0.666667      0.123531
C       0.333334      0.000000      0.070430
C       0.000000      0.333334      0.070430
C       0.666667      0.666667      0.070430
Si      0.666667      0.333333      0.052942
Si      0.000000      0.000000      0.052942
Si      0.333333      0.666667      0.052942
C       0.666667      0.333333      0.000000
C       0.333333      0.666667      0.000000
C       0.000000      0.000000      0.000000

K_POINTS automatic
2 2 2 0 0 0

CELL_PARAMETERS angstrom
      2.679488      4.641009      0.000000
     -5.358976      0.000000      0.000000
      0.000000      0.000000     35.861778
