&control
 title='crystal',
 prefix='crystal',
 pseudo_dir='.',
 calculation='relax',
 etot_conv_thr=1.0D-5,
 forc_conv_thr=1.0D-4,
/
&system
 ibrav=0,
 nat= 186,
 ntyp= 2,
 ecutwfc=80.0,
 ecutrho=800.0,
 xdm=.true.,
 xdm_a1=0.6512,
 xdm_a2=1.4633,
/
&electrons
 conv_thr = 1d-8
/
&ions
/
&cell
/
ATOMIC_SPECIES
s     32.06 s.UPF
mo     95.95 mo.UPF

ATOMIC_POSITIONS crystal
s     0.021529     0.440845     0.121000
s     0.053787     0.602135     0.121000
s     0.086045     0.763426     0.121000
s     0.118303     0.924716     0.121000
s     0.150561     0.086006     0.121000
s     0.182819     0.247297     0.121000
s     0.215077     0.408587     0.121000
s     0.247335     0.569877     0.121000
s     0.279594     0.731168     0.121000
s     0.311852     0.892458     0.121000
s     0.344110     0.053748     0.121000
s     0.376368     0.215039     0.121000
s     0.408626     0.376329     0.121000
s     0.440884     0.537619     0.121000
s     0.473142     0.698910     0.121000
s     0.505400     0.860200     0.121000
s     0.537658     0.021490     0.121000
s     0.569916     0.182781     0.121000
s     0.602174     0.344071     0.121000
s     0.634432     0.505361     0.121000
s     0.666690     0.666652     0.121000
s     0.698948     0.827942     0.121000
s     0.731206     0.989232     0.121000
s     0.763465     0.150523     0.121000
s     0.795723     0.311813     0.121000
s     0.827981     0.473103     0.121000
s     0.860239     0.634394     0.121000
s     0.892497     0.795684     0.121000
s     0.924755     0.956974     0.121000
s     0.957013     0.118265     0.121000
s     0.989271     0.279555     0.121000
mo     0.000000     0.000000     0.250000
mo     0.032258     0.161290     0.250000
mo     0.064516     0.322581     0.250000
mo     0.096774     0.483871     0.250000
mo     0.129032     0.645161     0.250000
mo     0.161290     0.806452     0.250000
mo     0.193548     0.967742     0.250000
mo     0.225806     0.129032     0.250000
mo     0.258065     0.290323     0.250000
mo     0.290323     0.451613     0.250000
mo     0.322581     0.612903     0.250000
mo     0.354839     0.774194     0.250000
mo     0.387097     0.935484     0.250000
mo     0.419355     0.096774     0.250000
mo     0.451613     0.258065     0.250000
mo     0.483871     0.419355     0.250000
mo     0.516129     0.580645     0.250000
mo     0.548387     0.741935     0.250000
mo     0.580645     0.903226     0.250000
mo     0.612903     0.064516     0.250000
mo     0.645161     0.225806     0.250000
mo     0.677419     0.387097     0.250000
mo     0.709677     0.548387     0.250000
mo     0.741935     0.709677     0.250000
mo     0.774194     0.870968     0.250000
mo     0.806452     0.032258     0.250000
mo     0.838710     0.193548     0.250000
mo     0.870968     0.354839     0.250000
mo     0.903226     0.516129     0.250000
mo     0.935484     0.677419     0.250000
mo     0.967742     0.838710     0.250000
s     0.021529     0.440845     0.379000
s     0.053787     0.602135     0.379000
s     0.086045     0.763426     0.379000
s     0.118303     0.924716     0.379000
s     0.150561     0.086006     0.379000
s     0.182819     0.247297     0.379000
s     0.215077     0.408587     0.379000
s     0.247335     0.569877     0.379000
s     0.279594     0.731168     0.379000
s     0.311852     0.892458     0.379000
s     0.344110     0.053748     0.379000
s     0.376368     0.215039     0.379000
s     0.408626     0.376329     0.379000
s     0.440884     0.537619     0.379000
s     0.473142     0.698910     0.379000
s     0.505400     0.860200     0.379000
s     0.537658     0.021490     0.379000
s     0.569916     0.182781     0.379000
s     0.602174     0.344071     0.379000
s     0.634432     0.505361     0.379000
s     0.666690     0.666652     0.379000
s     0.698948     0.827942     0.379000
s     0.731206     0.989232     0.379000
s     0.763465     0.150523     0.379000
s     0.795723     0.311813     0.379000
s     0.827981     0.473103     0.379000
s     0.860239     0.634394     0.379000
s     0.892497     0.795684     0.379000
s     0.924755     0.956974     0.379000
s     0.957013     0.118265     0.379000
s     0.989271     0.279555     0.379000
s     0.000000     0.000000     0.621000
s     0.032270     0.806447     0.621000
s     0.064541     0.612894     0.621000
s     0.096742     0.419376     0.621000
s     0.129012     0.225823     0.621000
s     0.161282     0.032270     0.621000
s     0.193553     0.838718     0.621000
s     0.225823     0.645165     0.621000
s     0.258024     0.451647     0.621000
s     0.290295     0.258094     0.621000
s     0.322565     0.064541     0.621000
s     0.354835     0.870988     0.621000
s     0.387106     0.677435     0.621000
s     0.419376     0.483882     0.621000
s     0.451577     0.290364     0.621000
s     0.483847     0.096811     0.621000
s     0.516153     0.903189     0.621000
s     0.548423     0.709636     0.621000
s     0.580693     0.516083     0.621000
s     0.612894     0.322565     0.621000
s     0.645165     0.129012     0.621000
s     0.677435     0.935459     0.621000
s     0.709705     0.741906     0.621000
s     0.741976     0.548353     0.621000
s     0.774177     0.354835     0.621000
s     0.806447     0.161282     0.621000
s     0.838718     0.967730     0.621000
s     0.870988     0.774177     0.621000
s     0.903258     0.580624     0.621000
s     0.935459     0.387106     0.621000
s     0.967730     0.193553     0.621000
mo     0.010749     0.268804     0.750000
mo     0.043019     0.075251     0.750000
mo     0.075289     0.881698     0.750000
mo     0.107560     0.688145     0.750000
mo     0.139830     0.494592     0.750000
mo     0.172031     0.301074     0.750000
mo     0.204302     0.107521     0.750000
mo     0.236572     0.913968     0.750000
mo     0.268842     0.720415     0.750000
mo     0.301113     0.526863     0.750000
mo     0.333314     0.333344     0.750000
mo     0.365584     0.139792     0.750000
mo     0.397854     0.946239     0.750000
mo     0.430125     0.752686     0.750000
mo     0.462395     0.559133     0.750000
mo     0.494596     0.365615     0.750000
mo     0.526901     0.171992     0.750000
mo     0.559172     0.978440     0.750000
mo     0.591442     0.784887     0.750000
mo     0.623712     0.591334     0.750000
mo     0.655913     0.397816     0.750000
mo     0.688184     0.204263     0.750000
mo     0.720454     0.010710     0.750000
mo     0.752725     0.817157     0.750000
mo     0.784995     0.623604     0.750000
mo     0.817196     0.430086     0.750000
mo     0.849466     0.236533     0.750000
mo     0.881737     0.042980     0.750000
mo     0.914007     0.849427     0.750000
mo     0.946277     0.655875     0.750000
mo     0.978548     0.462322     0.750000
s     0.000000     0.000000     0.879000
s     0.032270     0.806447     0.879000
s     0.064541     0.612894     0.879000
s     0.096742     0.419376     0.879000
s     0.129012     0.225823     0.879000
s     0.161282     0.032270     0.879000
s     0.193553     0.838718     0.879000
s     0.225823     0.645165     0.879000
s     0.258024     0.451647     0.879000
s     0.290295     0.258094     0.879000
s     0.322565     0.064541     0.879000
s     0.354835     0.870988     0.879000
s     0.387106     0.677435     0.879000
s     0.419376     0.483882     0.879000
s     0.451577     0.290364     0.879000
s     0.483847     0.096811     0.879000
s     0.516153     0.903189     0.879000
s     0.548423     0.709636     0.879000
s     0.580693     0.516083     0.879000
s     0.612894     0.322565     0.879000
s     0.645165     0.129012     0.879000
s     0.677435     0.935459     0.879000
s     0.709705     0.741906     0.879000
s     0.741976     0.548353     0.879000
s     0.774177     0.354835     0.879000
s     0.806447     0.161282     0.879000
s     0.838718     0.967730     0.879000
s     0.870988     0.774177     0.879000
s     0.903258     0.580624     0.879000
s     0.935459     0.387106     0.879000
s     0.967730     0.193553     0.879000

K_POINTS automatic
8 8 1 1 1 1

CELL_PARAMETERS bohr
     30.930808        -11.905274  0.000000
     25.775674        20.834229   0.000000
     0.000000         0.000000    23.243630
