&control
 title='crystal',
 prefix='crystal',
 pseudo_dir='.',
 calculation='relax',
 etot_conv_thr=1.0D-5,
 forc_conv_thr=1.0D-4,
/
&system
 ibrav=0,
 nat= 114,
 ntyp= 2,
 ecutwfc=80.0,
 ecutrho=800.0,
 xdm=.true.,
 xdm_a1=0.6512,
 xdm_a2=1.4633,
/
&electrons
 conv_thr = 1d-8
/
&ions
/
&cell
/
ATOMIC_SPECIES
s     32.06 s.UPF
mo     95.95 mo.UPF

ATOMIC_POSITIONS crystal
s     0.000000     0.000000     0.121000
s     0.052632     0.578947     0.121000
s     0.105263     0.157895     0.121000
s     0.157895     0.736842     0.121000
s     0.210526     0.315789     0.121000
s     0.263158     0.894737     0.121000
s     0.315789     0.473684     0.121000
s     0.368421     0.052632     0.121000
s     0.421053     0.631579     0.121000
s     0.473684     0.210526     0.121000
s     0.526316     0.789474     0.121000
s     0.578947     0.368421     0.121000
s     0.631579     0.947368     0.121000
s     0.684211     0.526316     0.121000
s     0.736842     0.105263     0.121000
s     0.789474     0.684211     0.121000
s     0.842105     0.263158     0.121000
s     0.894737     0.842105     0.121000
s     0.947368     0.421053     0.121000
mo     0.017516     0.859674     0.250000
mo     0.070147     0.438621     0.250000
mo     0.122779     0.017568     0.250000
mo     0.175411     0.596516     0.250000
mo     0.228042     0.175463     0.250000
mo     0.280674     0.754411     0.250000
mo     0.333305     0.333358     0.250000
mo     0.385937     0.912305     0.250000
mo     0.438568     0.491253     0.250000
mo     0.491200     0.070200     0.250000
mo     0.543832     0.649147     0.250000
mo     0.596463     0.228095     0.250000
mo     0.649095     0.807042     0.250000
mo     0.701726     0.385989     0.250000
mo     0.754358     0.964937     0.250000
mo     0.806989     0.543884     0.250000
mo     0.859621     0.122832     0.250000
mo     0.912253     0.701779     0.250000
mo     0.964884     0.280726     0.250000
s     0.000000     0.000000     0.379000
s     0.052632     0.578947     0.379000
s     0.105263     0.157895     0.379000
s     0.157895     0.736842     0.379000
s     0.210526     0.315789     0.379000
s     0.263158     0.894737     0.379000
s     0.315789     0.473684     0.379000
s     0.368421     0.052632     0.379000
s     0.421053     0.631579     0.379000
s     0.473684     0.210526     0.379000
s     0.526316     0.789474     0.379000
s     0.578947     0.368421     0.379000
s     0.631579     0.947368     0.379000
s     0.684211     0.526316     0.379000
s     0.736842     0.105263     0.379000
s     0.789474     0.684211     0.379000
s     0.842105     0.263158     0.379000
s     0.894737     0.842105     0.379000
s     0.947368     0.421053     0.379000
s     0.000000     0.000000     0.621000
s     0.052603     0.368438     0.621000
s     0.105278     0.736840     0.621000
s     0.157882     0.105278     0.621000
s     0.210485     0.473716     0.621000
s     0.263160     0.842118     0.621000
s     0.315763     0.210556     0.621000
s     0.368438     0.578959     0.621000
s     0.421041     0.947397     0.621000
s     0.473680     0.315763     0.621000
s     0.526355     0.684165     0.621000
s     0.578959     0.052603     0.621000
s     0.631562     0.421041     0.621000
s     0.684237     0.789444     0.621000
s     0.736840     0.157882     0.621000
s     0.789444     0.526320     0.621000
s     0.842118     0.894722     0.621000
s     0.894722     0.263160     0.621000
s     0.947397     0.631562     0.621000
mo     0.017559     0.122785     0.750000
mo     0.070162     0.491223     0.750000
mo     0.122837     0.859625     0.750000
mo     0.175441     0.228063     0.750000
mo     0.228115     0.596465     0.750000
mo     0.280719     0.964903     0.750000
mo     0.333322     0.333341     0.750000
mo     0.385997     0.701743     0.750000
mo     0.438600     0.070181     0.750000
mo     0.491239     0.438548     0.750000
mo     0.543914     0.806950     0.750000
mo     0.596518     0.175388     0.750000
mo     0.649121     0.543826     0.750000
mo     0.701796     0.912228     0.750000
mo     0.754399     0.280666     0.750000
mo     0.807074     0.649068     0.750000
mo     0.859677     0.017506     0.750000
mo     0.912281     0.385944     0.750000
mo     0.964956     0.754347     0.750000
s     0.000000     0.000000     0.879000
s     0.052603     0.368438     0.879000
s     0.105278     0.736840     0.879000
s     0.157882     0.105278     0.879000
s     0.210485     0.473716     0.879000
s     0.263160     0.842118     0.879000
s     0.315763     0.210556     0.879000
s     0.368438     0.578959     0.879000
s     0.421041     0.947397     0.879000
s     0.473680     0.315763     0.879000
s     0.526355     0.684165     0.879000
s     0.578959     0.052603     0.879000
s     0.631562     0.421041     0.879000
s     0.684237     0.789444     0.879000
s     0.736840     0.157882     0.879000
s     0.789444     0.526320     0.879000
s     0.842118     0.894722     0.879000
s     0.894722     0.263160     0.879000
s     0.947397     0.631562     0.879000

K_POINTS automatic
8 8 1 1 1 1

CELL_PARAMETERS bohr
     25.775674        -2.976318  0.000000
     15.465404        20.834229  0.000000
     0.000000         0.000000   23.243630
