&control
 title='crystal',
 prefix='crystal',
 pseudo_dir='.',
 calculation='relax',
 etot_conv_thr=1.0D-5,
 forc_conv_thr=1.0D-4,
/
&system
 ibrav=0,
 nat= 294,
 ntyp= 2,
 ecutwfc=80.0,
 ecutrho=800.0,
 xdm=.true.,
 xdm_a1=0.6512,
 xdm_a2=1.4633,
/
&electrons
 conv_thr = 1d-8
/
&ions
/
&cell
/
ATOMIC_SPECIES
s     32.06 s.UPF
mo     95.95 mo.UPF

ATOMIC_POSITIONS crystal
s     0.006820     0.455767     0.121000
s     0.027229     0.823114     0.121000
s     0.047637     0.190461     0.121000
s     0.068045     0.557808     0.121000
s     0.088453     0.925155     0.121000
s     0.108861     0.292502     0.121000
s     0.129269     0.659849     0.121000
s     0.149678     0.027196     0.121000
s     0.170086     0.394543     0.121000
s     0.190494     0.761890     0.121000
s     0.210902     0.129237     0.121000
s     0.231310     0.496584     0.121000
s     0.251718     0.863931     0.121000
s     0.272127     0.231278     0.121000
s     0.292535     0.598624     0.121000
s     0.312943     0.965971     0.121000
s     0.333351     0.333318     0.121000
s     0.353759     0.700665     0.121000
s     0.374167     0.068012     0.121000
s     0.394576     0.435359     0.121000
s     0.414984     0.802706     0.121000
s     0.435392     0.170053     0.121000
s     0.455800     0.537400     0.121000
s     0.476208     0.904747     0.121000
s     0.496616     0.272094     0.121000
s     0.517024     0.639441     0.121000
s     0.537433     0.006788     0.121000
s     0.557841     0.374135     0.121000
s     0.578249     0.741482     0.121000
s     0.598657     0.108829     0.121000
s     0.619065     0.476176     0.121000
s     0.639473     0.843522     0.121000
s     0.659882     0.210869     0.121000
s     0.680290     0.578216     0.121000
s     0.700698     0.945563     0.121000
s     0.721106     0.312910     0.121000
s     0.741514     0.680257     0.121000
s     0.761922     0.047604     0.121000
s     0.782331     0.414951     0.121000
s     0.802739     0.782298     0.121000
s     0.823147     0.149645     0.121000
s     0.843555     0.516992     0.121000
s     0.863963     0.884339     0.121000
s     0.884371     0.251686     0.121000
s     0.904780     0.619033     0.121000
s     0.925188     0.986380     0.121000
s     0.945596     0.353727     0.121000
s     0.966004     0.721073     0.121000
s     0.986412     0.088420     0.121000
mo     0.000000     0.000000     0.250000
mo     0.020408     0.367347     0.250000
mo     0.040816     0.734694     0.250000
mo     0.061224     0.102041     0.250000
mo     0.081633     0.469388     0.250000
mo     0.102041     0.836735     0.250000
mo     0.122449     0.204082     0.250000
mo     0.142857     0.571429     0.250000
mo     0.163265     0.938776     0.250000
mo     0.183673     0.306122     0.250000
mo     0.204082     0.673469     0.250000
mo     0.224490     0.040816     0.250000
mo     0.244898     0.408163     0.250000
mo     0.265306     0.775510     0.250000
mo     0.285714     0.142857     0.250000
mo     0.306122     0.510204     0.250000
mo     0.326531     0.877551     0.250000
mo     0.346939     0.244898     0.250000
mo     0.367347     0.612245     0.250000
mo     0.387755     0.979592     0.250000
mo     0.408163     0.346939     0.250000
mo     0.428571     0.714286     0.250000
mo     0.448980     0.081633     0.250000
mo     0.469388     0.448980     0.250000
mo     0.489796     0.816327     0.250000
mo     0.510204     0.183673     0.250000
mo     0.530612     0.551020     0.250000
mo     0.551020     0.918367     0.250000
mo     0.571429     0.285714     0.250000
mo     0.591837     0.653061     0.250000
mo     0.612245     0.020408     0.250000
mo     0.632653     0.387755     0.250000
mo     0.653061     0.755102     0.250000
mo     0.673469     0.122449     0.250000
mo     0.693878     0.489796     0.250000
mo     0.714286     0.857143     0.250000
mo     0.734694     0.224490     0.250000
mo     0.755102     0.591837     0.250000
mo     0.775510     0.959184     0.250000
mo     0.795918     0.326531     0.250000
mo     0.816327     0.693878     0.250000
mo     0.836735     0.061224     0.250000
mo     0.857143     0.428571     0.250000
mo     0.877551     0.795918     0.250000
mo     0.897959     0.163265     0.250000
mo     0.918367     0.530612     0.250000
mo     0.938776     0.897959     0.250000
mo     0.959184     0.265306     0.250000
mo     0.979592     0.632653     0.250000
s     0.006820     0.455767     0.379000
s     0.027229     0.823114     0.379000
s     0.047637     0.190461     0.379000
s     0.068045     0.557808     0.379000
s     0.088453     0.925155     0.379000
s     0.108861     0.292502     0.379000
s     0.129269     0.659849     0.379000
s     0.149678     0.027196     0.379000
s     0.170086     0.394543     0.379000
s     0.190494     0.761890     0.379000
s     0.210902     0.129237     0.379000
s     0.231310     0.496584     0.379000
s     0.251718     0.863931     0.379000
s     0.272127     0.231278     0.379000
s     0.292535     0.598624     0.379000
s     0.312943     0.965971     0.379000
s     0.333351     0.333318     0.379000
s     0.353759     0.700665     0.379000
s     0.374167     0.068012     0.379000
s     0.394576     0.435359     0.379000
s     0.414984     0.802706     0.379000
s     0.435392     0.170053     0.379000
s     0.455800     0.537400     0.379000
s     0.476208     0.904747     0.379000
s     0.496616     0.272094     0.379000
s     0.517024     0.639441     0.379000
s     0.537433     0.006788     0.379000
s     0.557841     0.374135     0.379000
s     0.578249     0.741482     0.379000
s     0.598657     0.108829     0.379000
s     0.619065     0.476176     0.379000
s     0.639473     0.843522     0.379000
s     0.659882     0.210869     0.379000
s     0.680290     0.578216     0.379000
s     0.700698     0.945563     0.379000
s     0.721106     0.312910     0.379000
s     0.741514     0.680257     0.379000
s     0.761922     0.047604     0.379000
s     0.782331     0.414951     0.379000
s     0.802739     0.782298     0.379000
s     0.823147     0.149645     0.379000
s     0.843555     0.516992     0.379000
s     0.863963     0.884339     0.379000
s     0.884371     0.251686     0.379000
s     0.904780     0.619033     0.379000
s     0.925188     0.986380     0.379000
s     0.945596     0.353727     0.379000
s     0.966004     0.721073     0.379000
s     0.986412     0.088420     0.379000
s     0.000000     0.000000     0.621000
s     0.020381     0.612257     0.621000
s     0.040834     0.224479     0.621000
s     0.061215     0.836736     0.621000
s     0.081668     0.448958     0.621000
s     0.102049     0.061215     0.621000
s     0.122430     0.673472     0.621000
s     0.142883     0.285694     0.621000
s     0.163264     0.897951     0.621000
s     0.183717     0.510172     0.621000
s     0.204098     0.122430     0.621000
s     0.224479     0.734687     0.621000
s     0.244932     0.346909     0.621000
s     0.265313     0.959166     0.621000
s     0.285694     0.571423     0.621000
s     0.306147     0.183645     0.621000
s     0.326528     0.795902     0.621000
s     0.346981     0.408124     0.621000
s     0.367362     0.020381     0.621000
s     0.387743     0.632638     0.621000
s     0.408196     0.244860     0.621000
s     0.428577     0.857117     0.621000
s     0.449030     0.469338     0.621000
s     0.469411     0.081596     0.621000
s     0.489792     0.693853     0.621000
s     0.510245     0.306075     0.621000
s     0.530625     0.918332     0.621000
s     0.551006     0.530589     0.621000
s     0.571423     0.142883     0.621000
s     0.591804     0.755140     0.621000
s     0.612257     0.367362     0.621000
s     0.632638     0.979619     0.621000
s     0.653019     0.591876     0.621000
s     0.673472     0.204098     0.621000
s     0.693853     0.816355     0.621000
s     0.714306     0.428577     0.621000
s     0.734687     0.040834     0.621000
s     0.755068     0.653091     0.621000
s     0.775521     0.265313     0.621000
s     0.795902     0.877570     0.621000
s     0.816355     0.489792     0.621000
s     0.836736     0.102049     0.621000
s     0.857117     0.714306     0.621000
s     0.877570     0.326528     0.621000
s     0.897951     0.938785     0.621000
s     0.918332     0.551042     0.621000
s     0.938785     0.163264     0.621000
s     0.959166     0.775521     0.621000
s     0.979619     0.387743     0.621000
mo     0.013626     0.074809     0.750000
mo     0.034007     0.687066     0.750000
mo     0.054460     0.299287     0.750000
mo     0.074841     0.911545     0.750000
mo     0.095222     0.523802     0.750000
mo     0.115675     0.136023     0.750000
mo     0.136056     0.748281     0.750000
mo     0.156509     0.360502     0.750000
mo     0.176890     0.972760     0.750000
mo     0.197271     0.585017     0.750000
mo     0.217724     0.197238     0.750000
mo     0.238105     0.809496     0.750000
mo     0.258558     0.421717     0.750000
mo     0.278939     0.033975     0.750000
mo     0.299320     0.646232     0.750000
mo     0.319773     0.258453     0.750000
mo     0.340154     0.870711     0.750000
mo     0.360607     0.482932     0.750000
mo     0.380988     0.095189     0.750000
mo     0.401369     0.707447     0.750000
mo     0.421822     0.319668     0.750000
mo     0.442203     0.931926     0.750000
mo     0.462584     0.544183     0.750000
mo     0.483037     0.156404     0.750000
mo     0.503418     0.768662     0.750000
mo     0.523871     0.380883     0.750000
mo     0.544252     0.993141     0.750000
mo     0.564597     0.605470     0.750000
mo     0.585050     0.217691     0.750000
mo     0.605431     0.829949     0.750000
mo     0.625884     0.442170     0.750000
mo     0.646265     0.054428     0.750000
mo     0.666646     0.666685     0.750000
mo     0.687099     0.278906     0.750000
mo     0.707480     0.891164     0.750000
mo     0.727933     0.503385     0.750000
mo     0.748314     0.115643     0.750000
mo     0.768694     0.727900     0.750000
mo     0.789148     0.340121     0.750000
mo     0.809528     0.952379     0.750000
mo     0.829909     0.564636     0.750000
mo     0.850362     0.176857     0.750000
mo     0.870743     0.789115     0.750000
mo     0.891196     0.401336     0.750000
mo     0.911577     0.013594     0.750000
mo     0.931958     0.625851     0.750000
mo     0.952411     0.238072     0.750000
mo     0.972792     0.850330     0.750000
mo     0.993245     0.462551     0.750000
s     0.000000     0.000000     0.879000
s     0.020381     0.612257     0.879000
s     0.040834     0.224479     0.879000
s     0.061215     0.836736     0.879000
s     0.081668     0.448958     0.879000
s     0.102049     0.061215     0.879000
s     0.122430     0.673472     0.879000
s     0.142883     0.285694     0.879000
s     0.163264     0.897951     0.879000
s     0.183717     0.510172     0.879000
s     0.204098     0.122430     0.879000
s     0.224479     0.734687     0.879000
s     0.244932     0.346909     0.879000
s     0.265313     0.959166     0.879000
s     0.285694     0.571423     0.879000
s     0.306147     0.183645     0.879000
s     0.326528     0.795902     0.879000
s     0.346981     0.408124     0.879000
s     0.367362     0.020381     0.879000
s     0.387743     0.632638     0.879000
s     0.408196     0.244860     0.879000
s     0.428577     0.857117     0.879000
s     0.449030     0.469338     0.879000
s     0.469411     0.081596     0.879000
s     0.489792     0.693853     0.879000
s     0.510245     0.306075     0.879000
s     0.530625     0.918332     0.879000
s     0.551006     0.530589     0.879000
s     0.571423     0.142883     0.879000
s     0.591804     0.755140     0.879000
s     0.612257     0.367362     0.879000
s     0.632638     0.979619     0.879000
s     0.653019     0.591876     0.879000
s     0.673472     0.204098     0.879000
s     0.693853     0.816355     0.879000
s     0.714306     0.428577     0.879000
s     0.734687     0.040834     0.879000
s     0.755068     0.653091     0.879000
s     0.775521     0.265313     0.879000
s     0.795902     0.877570     0.879000
s     0.816355     0.489792     0.879000
s     0.836736     0.102049     0.879000
s     0.857117     0.714306     0.879000
s     0.877570     0.326528     0.879000
s     0.897951     0.938785     0.879000
s     0.918332     0.551042     0.879000
s     0.938785     0.163264     0.879000
s     0.959166     0.775521     0.879000
s     0.979619     0.387743     0.879000

K_POINTS automatic
8 8 1 1 1 1

CELL_PARAMETERS bohr
     41.241078        -5.952637  0.000000
     25.775674        32.739503  0.000000
     0.000000         0.000000   23.243630
