&control
 title='crystal',
 prefix='crystal',
 pseudo_dir='.',
 calculation='relax',
 etot_conv_thr=1.0D-5,
 forc_conv_thr=1.0D-4,
/
&system
 ibrav=0,
 nat= 258,
 ntyp= 2,
 ecutwfc=80.0,
 ecutrho=800.0,
 xdm=.true.,
 xdm_a1=0.6512,
 xdm_a2=1.4633,
/
&electrons
 conv_thr = 1d-8
/
&ions
/
&cell
/
ATOMIC_SPECIES
s     32.06 s.UPF
mo     95.95 mo.UPF

ATOMIC_POSITIONS crystal
s     0.007772     0.379833     0.121000
s     0.031028     0.519367     0.121000
s     0.054284     0.658902     0.121000
s     0.077540     0.798437     0.121000
s     0.100795     0.937972     0.121000
s     0.124051     0.077507     0.121000
s     0.147307     0.217042     0.121000
s     0.170563     0.356577     0.121000
s     0.193819     0.496112     0.121000
s     0.217074     0.635647     0.121000
s     0.240330     0.775181     0.121000
s     0.263586     0.914716     0.121000
s     0.286842     0.054251     0.121000
s     0.310098     0.193786     0.121000
s     0.333353     0.333321     0.121000
s     0.356609     0.472856     0.121000
s     0.379865     0.612391     0.121000
s     0.403121     0.751926     0.121000
s     0.426377     0.891460     0.121000
s     0.449633     0.030995     0.121000
s     0.472888     0.170530     0.121000
s     0.496144     0.310065     0.121000
s     0.519400     0.449600     0.121000
s     0.542656     0.589135     0.121000
s     0.565912     0.728670     0.121000
s     0.589167     0.868205     0.121000
s     0.612423     0.007740     0.121000
s     0.635679     0.147274     0.121000
s     0.658935     0.286809     0.121000
s     0.682191     0.426344     0.121000
s     0.705447     0.565879     0.121000
s     0.728702     0.705414     0.121000
s     0.751958     0.844949     0.121000
s     0.775214     0.984484     0.121000
s     0.798470     0.124019     0.121000
s     0.821726     0.263553     0.121000
s     0.844981     0.403088     0.121000
s     0.868237     0.542623     0.121000
s     0.891493     0.682158     0.121000
s     0.914749     0.821693     0.121000
s     0.938005     0.961228     0.121000
s     0.961260     0.100763     0.121000
s     0.984516     0.240298     0.121000
mo     0.000000     0.000000     0.250000
mo     0.023256     0.139535     0.250000
mo     0.046512     0.279070     0.250000
mo     0.069767     0.418605     0.250000
mo     0.093023     0.558140     0.250000
mo     0.116279     0.697674     0.250000
mo     0.139535     0.837209     0.250000
mo     0.162791     0.976744     0.250000
mo     0.186047     0.116279     0.250000
mo     0.209302     0.255814     0.250000
mo     0.232558     0.395349     0.250000
mo     0.255814     0.534884     0.250000
mo     0.279070     0.674419     0.250000
mo     0.302326     0.813953     0.250000
mo     0.325581     0.953488     0.250000
mo     0.348837     0.093023     0.250000
mo     0.372093     0.232558     0.250000
mo     0.395349     0.372093     0.250000
mo     0.418605     0.511628     0.250000
mo     0.441860     0.651163     0.250000
mo     0.465116     0.790698     0.250000
mo     0.488372     0.930233     0.250000
mo     0.511628     0.069767     0.250000
mo     0.534884     0.209302     0.250000
mo     0.558140     0.348837     0.250000
mo     0.581395     0.488372     0.250000
mo     0.604651     0.627907     0.250000
mo     0.627907     0.767442     0.250000
mo     0.651163     0.906977     0.250000
mo     0.674419     0.046512     0.250000
mo     0.697674     0.186047     0.250000
mo     0.720930     0.325581     0.250000
mo     0.744186     0.465116     0.250000
mo     0.767442     0.604651     0.250000
mo     0.790698     0.744186     0.250000
mo     0.813953     0.883721     0.250000
mo     0.837209     0.023256     0.250000
mo     0.860465     0.162791     0.250000
mo     0.883721     0.302326     0.250000
mo     0.906977     0.441860     0.250000
mo     0.930233     0.581395     0.250000
mo     0.953488     0.720930     0.250000
mo     0.976744     0.860465     0.250000
s     0.007772     0.379833     0.379000
s     0.031028     0.519367     0.379000
s     0.054284     0.658902     0.379000
s     0.077540     0.798437     0.379000
s     0.100795     0.937972     0.379000
s     0.124051     0.077507     0.379000
s     0.147307     0.217042     0.379000
s     0.170563     0.356577     0.379000
s     0.193819     0.496112     0.379000
s     0.217074     0.635647     0.379000
s     0.240330     0.775181     0.379000
s     0.263586     0.914716     0.379000
s     0.286842     0.054251     0.379000
s     0.310098     0.193786     0.379000
s     0.333353     0.333321     0.379000
s     0.356609     0.472856     0.379000
s     0.379865     0.612391     0.379000
s     0.403121     0.751926     0.379000
s     0.426377     0.891460     0.379000
s     0.449633     0.030995     0.379000
s     0.472888     0.170530     0.379000
s     0.496144     0.310065     0.379000
s     0.519400     0.449600     0.379000
s     0.542656     0.589135     0.379000
s     0.565912     0.728670     0.379000
s     0.589167     0.868205     0.379000
s     0.612423     0.007740     0.379000
s     0.635679     0.147274     0.379000
s     0.658935     0.286809     0.379000
s     0.682191     0.426344     0.379000
s     0.705447     0.565879     0.379000
s     0.728702     0.705414     0.379000
s     0.751958     0.844949     0.379000
s     0.775214     0.984484     0.379000
s     0.798470     0.124019     0.379000
s     0.821726     0.263553     0.379000
s     0.844981     0.403088     0.379000
s     0.868237     0.542623     0.379000
s     0.891493     0.682158     0.379000
s     0.914749     0.821693     0.379000
s     0.938005     0.961228     0.379000
s     0.961260     0.100763     0.379000
s     0.984516     0.240298     0.379000
s     0.007754     0.612416     0.621000
s     0.030978     0.449642     0.621000
s     0.054240     0.286849     0.621000
s     0.077501     0.124056     0.621000
s     0.100762     0.961263     0.621000
s     0.124024     0.798471     0.621000
s     0.147285     0.635678     0.621000
s     0.170510     0.472903     0.621000
s     0.193771     0.310110     0.621000
s     0.217032     0.147318     0.621000
s     0.240294     0.984525     0.621000
s     0.263555     0.821732     0.621000
s     0.286817     0.658939     0.621000
s     0.310041     0.496165     0.621000
s     0.333303     0.333372     0.621000
s     0.356564     0.170579     0.621000
s     0.379825     0.007786     0.621000
s     0.403087     0.844993     0.621000
s     0.426348     0.682201     0.621000
s     0.449609     0.519408     0.621000
s     0.472834     0.356633     0.621000
s     0.496095     0.193840     0.621000
s     0.519375     0.031011     0.621000
s     0.542636     0.868218     0.621000
s     0.565898     0.705425     0.621000
s     0.589159     0.542632     0.621000
s     0.612384     0.379858     0.621000
s     0.635645     0.217065     0.621000
s     0.658907     0.054272     0.621000
s     0.682168     0.891479     0.621000
s     0.705429     0.728687     0.621000
s     0.728691     0.565894     0.621000
s     0.751915     0.403119     0.621000
s     0.775177     0.240326     0.621000
s     0.798438     0.077534     0.621000
s     0.821699     0.914741     0.621000
s     0.844961     0.751948     0.621000
s     0.868222     0.589155     0.621000
s     0.891447     0.426381     0.621000
s     0.914708     0.263588     0.621000
s     0.937970     0.100795     0.621000
s     0.961231     0.938002     0.621000
s     0.984492     0.775209     0.621000
mo     0.000000     0.000000     0.750000
mo     0.023261     0.837207     0.750000
mo     0.046523     0.674414     0.750000
mo     0.069747     0.511640     0.750000
mo     0.093009     0.348847     0.750000
mo     0.116270     0.186054     0.750000
mo     0.139531     0.023261     0.750000
mo     0.162793     0.860469     0.750000
mo     0.186054     0.697676     0.750000
mo     0.209316     0.534883     0.750000
mo     0.232540     0.372108     0.750000
mo     0.255802     0.209316     0.750000
mo     0.279063     0.046523     0.750000
mo     0.302324     0.883730     0.750000
mo     0.325586     0.720937     0.750000
mo     0.348847     0.558144     0.750000
mo     0.372072     0.395370     0.750000
mo     0.395333     0.232577     0.750000
mo     0.418594     0.069784     0.750000
mo     0.441856     0.906991     0.750000
mo     0.465117     0.744198     0.750000
mo     0.488378     0.581406     0.750000
mo     0.511622     0.418594     0.750000
mo     0.534883     0.255802     0.750000
mo     0.558144     0.093009     0.750000
mo     0.581406     0.930216     0.750000
mo     0.604667     0.767423     0.750000
mo     0.627928     0.604630     0.750000
mo     0.651153     0.441856     0.750000
mo     0.674414     0.279063     0.750000
mo     0.697676     0.116270     0.750000
mo     0.720937     0.953477     0.750000
mo     0.744198     0.790684     0.750000
mo     0.767460     0.627892     0.750000
mo     0.790684     0.465117     0.750000
mo     0.813946     0.302324     0.750000
mo     0.837207     0.139531     0.750000
mo     0.860469     0.976739     0.750000
mo     0.883730     0.813946     0.750000
mo     0.906991     0.651153     0.750000
mo     0.930216     0.488378     0.750000
mo     0.953477     0.325586     0.750000
mo     0.976739     0.162793     0.750000
s     0.007754     0.612416     0.879000
s     0.030978     0.449642     0.879000
s     0.054240     0.286849     0.879000
s     0.077501     0.124056     0.879000
s     0.100762     0.961263     0.879000
s     0.124024     0.798471     0.879000
s     0.147285     0.635678     0.879000
s     0.170510     0.472903     0.879000
s     0.193771     0.310110     0.879000
s     0.217032     0.147318     0.879000
s     0.240294     0.984525     0.879000
s     0.263555     0.821732     0.879000
s     0.286817     0.658939     0.879000
s     0.310041     0.496165     0.879000
s     0.333303     0.333372     0.879000
s     0.356564     0.170579     0.879000
s     0.379825     0.007786     0.879000
s     0.403087     0.844993     0.879000
s     0.426348     0.682201     0.879000
s     0.449609     0.519408     0.879000
s     0.472834     0.356633     0.879000
s     0.496095     0.193840     0.879000
s     0.519375     0.031011     0.879000
s     0.542636     0.868218     0.879000
s     0.565898     0.705425     0.879000
s     0.589159     0.542632     0.879000
s     0.612384     0.379858     0.879000
s     0.635645     0.217065     0.879000
s     0.658907     0.054272     0.879000
s     0.682168     0.891479     0.879000
s     0.705429     0.728687     0.879000
s     0.728691     0.565894     0.879000
s     0.751915     0.403119     0.879000
s     0.775177     0.240326     0.879000
s     0.798438     0.077534     0.879000
s     0.821699     0.914741     0.879000
s     0.844961     0.751948     0.879000
s     0.868222     0.589155     0.879000
s     0.891447     0.426381     0.879000
s     0.914708     0.263588     0.879000
s     0.937970     0.100795     0.879000
s     0.961231     0.938002     0.879000
s     0.984492     0.775209     0.879000

K_POINTS automatic
8 8 1 1 1 1

CELL_PARAMETERS bohr
     36.085943        -14.881592  0.000000
     30.930808        23.810547   0.000000
     0.000000         0.000000    23.243630
