&control
 title='crystal',
 prefix='crystal',
 pseudo_dir='.',
 calculation='relax',
 etot_conv_thr=1.0D-5,
 forc_conv_thr=1.0D-4,
/
&system
 ibrav=0,
 nat= 222,
 ntyp= 2,
 ecutwfc=80.0,
 ecutrho=800.0,
 xdm=.true.,
 xdm_a1=0.6512,
 xdm_a2=1.4633,
/
&electrons
 conv_thr = 1d-8
/
&ions
/
&cell
/
ATOMIC_SPECIES
s     32.06 s.UPF
mo     95.95 mo.UPF

ATOMIC_POSITIONS crystal
s     0.018038     0.801784     0.121000
s     0.045065     0.504486     0.121000
s     0.072092     0.207189     0.121000
s     0.099119     0.909892     0.121000
s     0.126146     0.612595     0.121000
s     0.153173     0.315297     0.121000
s     0.180200     0.018000     0.121000
s     0.207227     0.720703     0.121000
s     0.234254     0.423405     0.121000
s     0.261281     0.126108     0.121000
s     0.288308     0.828811     0.121000
s     0.315335     0.531514     0.121000
s     0.342362     0.234216     0.121000
s     0.369389     0.936919     0.121000
s     0.396416     0.639622     0.121000
s     0.423443     0.342324     0.121000
s     0.450470     0.045027     0.121000
s     0.477497     0.747730     0.121000
s     0.504524     0.450432     0.121000
s     0.531551     0.153135     0.121000
s     0.558578     0.855838     0.121000
s     0.585605     0.558541     0.121000
s     0.612632     0.261243     0.121000
s     0.639659     0.963946     0.121000
s     0.666686     0.666649     0.121000
s     0.693714     0.369351     0.121000
s     0.720741     0.072054     0.121000
s     0.747768     0.774757     0.121000
s     0.774795     0.477459     0.121000
s     0.801822     0.180162     0.121000
s     0.828849     0.882865     0.121000
s     0.855876     0.585568     0.121000
s     0.882903     0.288270     0.121000
s     0.909930     0.990973     0.121000
s     0.936957     0.693676     0.121000
s     0.963984     0.396378     0.121000
s     0.991011     0.099081     0.121000
mo     0.000000     0.000000     0.250000
mo     0.027027     0.702703     0.250000
mo     0.054054     0.405405     0.250000
mo     0.081081     0.108108     0.250000
mo     0.108108     0.810811     0.250000
mo     0.135135     0.513514     0.250000
mo     0.162162     0.216216     0.250000
mo     0.189189     0.918919     0.250000
mo     0.216216     0.621622     0.250000
mo     0.243243     0.324324     0.250000
mo     0.270270     0.027027     0.250000
mo     0.297297     0.729730     0.250000
mo     0.324324     0.432432     0.250000
mo     0.351351     0.135135     0.250000
mo     0.378378     0.837838     0.250000
mo     0.405405     0.540541     0.250000
mo     0.432432     0.243243     0.250000
mo     0.459459     0.945946     0.250000
mo     0.486486     0.648649     0.250000
mo     0.513514     0.351351     0.250000
mo     0.540541     0.054054     0.250000
mo     0.567568     0.756757     0.250000
mo     0.594595     0.459459     0.250000
mo     0.621622     0.162162     0.250000
mo     0.648649     0.864865     0.250000
mo     0.675676     0.567568     0.250000
mo     0.702703     0.270270     0.250000
mo     0.729730     0.972973     0.250000
mo     0.756757     0.675676     0.250000
mo     0.783784     0.378378     0.250000
mo     0.810811     0.081081     0.250000
mo     0.837838     0.783784     0.250000
mo     0.864865     0.486486     0.250000
mo     0.891892     0.189189     0.250000
mo     0.918919     0.891892     0.250000
mo     0.945946     0.594595     0.250000
mo     0.972973     0.297297     0.250000
s     0.018038     0.801784     0.379000
s     0.045065     0.504486     0.379000
s     0.072092     0.207189     0.379000
s     0.099119     0.909892     0.379000
s     0.126146     0.612595     0.379000
s     0.153173     0.315297     0.379000
s     0.180200     0.018000     0.379000
s     0.207227     0.720703     0.379000
s     0.234254     0.423405     0.379000
s     0.261281     0.126108     0.379000
s     0.288308     0.828811     0.379000
s     0.315335     0.531514     0.379000
s     0.342362     0.234216     0.379000
s     0.369389     0.936919     0.379000
s     0.396416     0.639622     0.379000
s     0.423443     0.342324     0.379000
s     0.450470     0.045027     0.379000
s     0.477497     0.747730     0.379000
s     0.504524     0.450432     0.379000
s     0.531551     0.153135     0.379000
s     0.558578     0.855838     0.379000
s     0.585605     0.558541     0.379000
s     0.612632     0.261243     0.379000
s     0.639659     0.963946     0.379000
s     0.666686     0.666649     0.379000
s     0.693714     0.369351     0.379000
s     0.720741     0.072054     0.379000
s     0.747768     0.774757     0.379000
s     0.774795     0.477459     0.379000
s     0.801822     0.180162     0.379000
s     0.828849     0.882865     0.379000
s     0.855876     0.585568     0.379000
s     0.882903     0.288270     0.379000
s     0.909930     0.990973     0.379000
s     0.936957     0.693676     0.379000
s     0.963984     0.396378     0.379000
s     0.991011     0.099081     0.379000
s     0.018000     0.180200     0.621000
s     0.045027     0.450470     0.621000
s     0.072054     0.720741     0.621000
s     0.099081     0.991011     0.621000
s     0.126108     0.261281     0.621000
s     0.153135     0.531551     0.621000
s     0.180162     0.801822     0.621000
s     0.207189     0.072092     0.621000
s     0.234216     0.342362     0.621000
s     0.261243     0.612632     0.621000
s     0.288270     0.882903     0.621000
s     0.315297     0.153173     0.621000
s     0.342324     0.423443     0.621000
s     0.369351     0.693714     0.621000
s     0.396378     0.963984     0.621000
s     0.423405     0.234254     0.621000
s     0.450432     0.504524     0.621000
s     0.477459     0.774795     0.621000
s     0.504486     0.045065     0.621000
s     0.531514     0.315335     0.621000
s     0.558541     0.585605     0.621000
s     0.585568     0.855876     0.621000
s     0.612595     0.126146     0.621000
s     0.639622     0.396416     0.621000
s     0.666649     0.666686     0.621000
s     0.693676     0.936957     0.621000
s     0.720703     0.207227     0.621000
s     0.747730     0.477497     0.621000
s     0.774757     0.747768     0.621000
s     0.801784     0.018038     0.621000
s     0.828811     0.288308     0.621000
s     0.855838     0.558578     0.621000
s     0.882865     0.828849     0.621000
s     0.909892     0.099119     0.621000
s     0.936919     0.369389     0.621000
s     0.963946     0.639659     0.621000
s     0.990973     0.909930     0.621000
mo     0.000000     0.000000     0.750000
mo     0.027027     0.270270     0.750000
mo     0.054054     0.540541     0.750000
mo     0.081081     0.810811     0.750000
mo     0.108108     0.081081     0.750000
mo     0.135135     0.351351     0.750000
mo     0.162162     0.621622     0.750000
mo     0.189189     0.891892     0.750000
mo     0.216216     0.162162     0.750000
mo     0.243243     0.432433     0.750000
mo     0.270270     0.702703     0.750000
mo     0.297297     0.972973     0.750000
mo     0.324324     0.243243     0.750000
mo     0.351351     0.513514     0.750000
mo     0.378378     0.783784     0.750000
mo     0.405405     0.054054     0.750000
mo     0.432432     0.324324     0.750000
mo     0.459459     0.594595     0.750000
mo     0.486486     0.864865     0.750000
mo     0.513513     0.135135     0.750000
mo     0.540541     0.405405     0.750000
mo     0.567568     0.675676     0.750000
mo     0.594595     0.945946     0.750000
mo     0.621622     0.216216     0.750000
mo     0.648649     0.486486     0.750000
mo     0.675676     0.756757     0.750000
mo     0.702703     0.027027     0.750000
mo     0.729730     0.297297     0.750000
mo     0.756757     0.567567     0.750000
mo     0.783784     0.837838     0.750000
mo     0.810811     0.108108     0.750000
mo     0.837838     0.378378     0.750000
mo     0.864865     0.648649     0.750000
mo     0.891892     0.918919     0.750000
mo     0.918919     0.189189     0.750000
mo     0.945946     0.459459     0.750000
mo     0.972973     0.729730     0.750000
s     0.018000     0.180200     0.879000
s     0.045027     0.450470     0.879000
s     0.072054     0.720741     0.879000
s     0.099081     0.991011     0.879000
s     0.126108     0.261281     0.879000
s     0.153135     0.531551     0.879000
s     0.180162     0.801822     0.879000
s     0.207189     0.072092     0.879000
s     0.234216     0.342362     0.879000
s     0.261243     0.612632     0.879000
s     0.288270     0.882903     0.879000
s     0.315297     0.153173     0.879000
s     0.342324     0.423443     0.879000
s     0.369351     0.693714     0.879000
s     0.396378     0.963984     0.879000
s     0.423405     0.234254     0.879000
s     0.450432     0.504524     0.879000
s     0.477459     0.774795     0.879000
s     0.504486     0.045065     0.879000
s     0.531514     0.315335     0.879000
s     0.558541     0.585605     0.879000
s     0.585568     0.855876     0.879000
s     0.612595     0.126146     0.879000
s     0.639622     0.396416     0.879000
s     0.666649     0.666686     0.879000
s     0.693676     0.936957     0.879000
s     0.720703     0.207227     0.879000
s     0.747730     0.477497     0.879000
s     0.774757     0.747768     0.879000
s     0.801784     0.018038     0.879000
s     0.828811     0.288308     0.879000
s     0.855838     0.558578     0.879000
s     0.882865     0.828849     0.879000
s     0.909892     0.099119     0.879000
s     0.936919     0.369389     0.879000
s     0.963946     0.639659     0.879000
s     0.990973     0.909930     0.879000

K_POINTS automatic
8 8 1 1 1 1

CELL_PARAMETERS bohr
     36.085943        -2.976318  0.000000
     20.620539        29.763184  0.000000
     0.000000         0.000000   23.243630
