&control
 title='crystal',
 prefix='crystal',
 pseudo_dir='.',
 calculation='relax',
 etot_conv_thr=1.0D-5,
 forc_conv_thr=1.0D-4,
/
&system
 ibrav=0,
 nat= 366,
 ntyp= 2,
 ecutwfc=80.0,
 ecutrho=800.0,
 xdm=.true.,
 xdm_a1=0.6512,
 xdm_a2=1.4633,
/
&electrons
 conv_thr = 1d-8
/
&ions
/
&cell
/
ATOMIC_SPECIES
s     32.06 s.UPF
mo     95.95 mo.UPF

ATOMIC_POSITIONS crystal
s     0.000000     0.000000     0.121000
s     0.016393     0.770492     0.121000
s     0.032787     0.540984     0.121000
s     0.049180     0.311475     0.121000
s     0.065574     0.081967     0.121000
s     0.081967     0.852459     0.121000
s     0.098361     0.622951     0.121000
s     0.114754     0.393443     0.121000
s     0.131148     0.163934     0.121000
s     0.147541     0.934426     0.121000
s     0.163934     0.704918     0.121000
s     0.180328     0.475410     0.121000
s     0.196721     0.245902     0.121000
s     0.213115     0.016393     0.121000
s     0.229508     0.786885     0.121000
s     0.245902     0.557377     0.121000
s     0.262295     0.327869     0.121000
s     0.278689     0.098361     0.121000
s     0.295082     0.868852     0.121000
s     0.311475     0.639344     0.121000
s     0.327869     0.409836     0.121000
s     0.344262     0.180328     0.121000
s     0.360656     0.950820     0.121000
s     0.377049     0.721311     0.121000
s     0.393443     0.491803     0.121000
s     0.409836     0.262295     0.121000
s     0.426230     0.032787     0.121000
s     0.442623     0.803279     0.121000
s     0.459016     0.573770     0.121000
s     0.475410     0.344262     0.121000
s     0.491803     0.114754     0.121000
s     0.508197     0.885246     0.121000
s     0.524590     0.655738     0.121000
s     0.540984     0.426230     0.121000
s     0.557377     0.196721     0.121000
s     0.573770     0.967213     0.121000
s     0.590164     0.737705     0.121000
s     0.606557     0.508197     0.121000
s     0.622951     0.278689     0.121000
s     0.639344     0.049180     0.121000
s     0.655738     0.819672     0.121000
s     0.672131     0.590164     0.121000
s     0.688525     0.360656     0.121000
s     0.704918     0.131148     0.121000
s     0.721311     0.901639     0.121000
s     0.737705     0.672131     0.121000
s     0.754098     0.442623     0.121000
s     0.770492     0.213115     0.121000
s     0.786885     0.983607     0.121000
s     0.803279     0.754098     0.121000
s     0.819672     0.524590     0.121000
s     0.836066     0.295082     0.121000
s     0.852459     0.065574     0.121000
s     0.868852     0.836066     0.121000
s     0.885246     0.606557     0.121000
s     0.901639     0.377049     0.121000
s     0.918033     0.147541     0.121000
s     0.934426     0.918033     0.121000
s     0.950820     0.688525     0.121000
s     0.967213     0.459016     0.121000
s     0.983607     0.229508     0.121000
mo     0.005449     0.923511     0.250000
mo     0.021843     0.694003     0.250000
mo     0.038236     0.464495     0.250000
mo     0.054630     0.234987     0.250000
mo     0.071023     0.005479     0.250000
mo     0.087416     0.775970     0.250000
mo     0.103810     0.546462     0.250000
mo     0.120203     0.316954     0.250000
mo     0.136597     0.087446     0.250000
mo     0.152990     0.857938     0.250000
mo     0.169384     0.628430     0.250000
mo     0.185777     0.398921     0.250000
mo     0.202170     0.169413     0.250000
mo     0.218564     0.939905     0.250000
mo     0.234957     0.710397     0.250000
mo     0.251351     0.480889     0.250000
mo     0.267744     0.251380     0.250000
mo     0.284138     0.021872     0.250000
mo     0.300531     0.792364     0.250000
mo     0.316925     0.562856     0.250000
mo     0.333318     0.333348     0.250000
mo     0.349711     0.103839     0.250000
mo     0.366105     0.874331     0.250000
mo     0.382498     0.644823     0.250000
mo     0.398892     0.415315     0.250000
mo     0.415285     0.185807     0.250000
mo     0.431679     0.956298     0.250000
mo     0.448072     0.726790     0.250000
mo     0.464466     0.497282     0.250000
mo     0.480859     0.267774     0.250000
mo     0.497252     0.038266     0.250000
mo     0.513646     0.808757     0.250000
mo     0.530039     0.579249     0.250000
mo     0.546433     0.349741     0.250000
mo     0.562826     0.120233     0.250000
mo     0.579220     0.890725     0.250000
mo     0.595613     0.661216     0.250000
mo     0.612007     0.431708     0.250000
mo     0.628400     0.202200     0.250000
mo     0.644793     0.972692     0.250000
mo     0.661187     0.743184     0.250000
mo     0.677580     0.513675     0.250000
mo     0.693974     0.284167     0.250000
mo     0.710367     0.054659     0.250000
mo     0.726761     0.825151     0.250000
mo     0.743154     0.595643     0.250000
mo     0.759548     0.366134     0.250000
mo     0.775941     0.136626     0.250000
mo     0.792334     0.907118     0.250000
mo     0.808728     0.677610     0.250000
mo     0.825121     0.448102     0.250000
mo     0.841515     0.218593     0.250000
mo     0.857908     0.989085     0.250000
mo     0.874302     0.759577     0.250000
mo     0.890695     0.530069     0.250000
mo     0.907089     0.300561     0.250000
mo     0.923482     0.071052     0.250000
mo     0.939875     0.841544     0.250000
mo     0.956269     0.612036     0.250000
mo     0.972662     0.382528     0.250000
mo     0.989056     0.153020     0.250000
s     0.000000     0.000000     0.379000
s     0.016393     0.770492     0.379000
s     0.032787     0.540984     0.379000
s     0.049180     0.311475     0.379000
s     0.065574     0.081967     0.379000
s     0.081967     0.852459     0.379000
s     0.098361     0.622951     0.379000
s     0.114754     0.393443     0.379000
s     0.131148     0.163934     0.379000
s     0.147541     0.934426     0.379000
s     0.163934     0.704918     0.379000
s     0.180328     0.475410     0.379000
s     0.196721     0.245902     0.379000
s     0.213115     0.016393     0.379000
s     0.229508     0.786885     0.379000
s     0.245902     0.557377     0.379000
s     0.262295     0.327869     0.379000
s     0.278689     0.098361     0.379000
s     0.295082     0.868852     0.379000
s     0.311475     0.639344     0.379000
s     0.327869     0.409836     0.379000
s     0.344262     0.180328     0.379000
s     0.360656     0.950820     0.379000
s     0.377049     0.721311     0.379000
s     0.393443     0.491803     0.379000
s     0.409836     0.262295     0.379000
s     0.426230     0.032787     0.379000
s     0.442623     0.803279     0.379000
s     0.459016     0.573770     0.379000
s     0.475410     0.344262     0.379000
s     0.491803     0.114754     0.379000
s     0.508197     0.885246     0.379000
s     0.524590     0.655738     0.379000
s     0.540984     0.426230     0.379000
s     0.557377     0.196721     0.379000
s     0.573770     0.967213     0.379000
s     0.590164     0.737705     0.379000
s     0.606557     0.508197     0.379000
s     0.622951     0.278689     0.379000
s     0.639344     0.049180     0.379000
s     0.655738     0.819672     0.379000
s     0.672131     0.590164     0.379000
s     0.688525     0.360656     0.379000
s     0.704918     0.131148     0.379000
s     0.721311     0.901639     0.379000
s     0.737705     0.672131     0.379000
s     0.754098     0.442623     0.379000
s     0.770492     0.213115     0.379000
s     0.786885     0.983607     0.379000
s     0.803279     0.754098     0.379000
s     0.819672     0.524590     0.379000
s     0.836066     0.295082     0.379000
s     0.852459     0.065574     0.379000
s     0.868852     0.836066     0.379000
s     0.885246     0.606557     0.379000
s     0.901639     0.377049     0.379000
s     0.918033     0.147541     0.379000
s     0.934426     0.918033     0.379000
s     0.950820     0.688525     0.379000
s     0.967213     0.459016     0.379000
s     0.983607     0.229508     0.379000
s     0.000000     0.000000     0.621000
s     0.016389     0.213117     0.621000
s     0.032778     0.426234     0.621000
s     0.049187     0.639342     0.621000
s     0.065576     0.852459     0.621000
s     0.081965     0.065576     0.621000
s     0.098354     0.278693     0.621000
s     0.114743     0.491810     0.621000
s     0.131152     0.704918     0.621000
s     0.147541     0.918035     0.621000
s     0.163930     0.131152     0.621000
s     0.180319     0.344269     0.621000
s     0.196728     0.557377     0.621000
s     0.213117     0.770494     0.621000
s     0.229506     0.983611     0.621000
s     0.245895     0.196728     0.621000
s     0.262284     0.409845     0.621000
s     0.278693     0.622953     0.621000
s     0.295082     0.836070     0.621000
s     0.311471     0.049187     0.621000
s     0.327860     0.262304     0.621000
s     0.344249     0.475421     0.621000
s     0.360658     0.688529     0.621000
s     0.377047     0.901646     0.621000
s     0.393436     0.114763     0.621000
s     0.409825     0.327880     0.621000
s     0.426214     0.540998     0.621000
s     0.442623     0.754105     0.621000
s     0.459012     0.967222     0.621000
s     0.475401     0.180339     0.621000
s     0.491800     0.393436     0.621000
s     0.508210     0.606544     0.621000
s     0.524599     0.819661     0.621000
s     0.540988     0.032778     0.621000
s     0.557377     0.245895     0.621000
s     0.573766     0.459012     0.621000
s     0.590175     0.672120     0.621000
s     0.606564     0.885237     0.621000
s     0.622953     0.098354     0.621000
s     0.639342     0.311471     0.621000
s     0.655731     0.524589     0.621000
s     0.672140     0.737696     0.621000
s     0.688529     0.950813     0.621000
s     0.704918     0.163930     0.621000
s     0.721307     0.377047     0.621000
s     0.737716     0.590155     0.621000
s     0.754105     0.803272     0.621000
s     0.770494     0.016389     0.621000
s     0.786883     0.229506     0.621000
s     0.803272     0.442623     0.621000
s     0.819681     0.655731     0.621000
s     0.836070     0.868848     0.621000
s     0.852459     0.081965     0.621000
s     0.868848     0.295082     0.621000
s     0.885237     0.508200     0.621000
s     0.901646     0.721307     0.621000
s     0.918035     0.934424     0.621000
s     0.934424     0.147541     0.621000
s     0.950813     0.360658     0.621000
s     0.967222     0.573766     0.621000
s     0.983611     0.786883     0.621000
mo     0.005477     0.071024     0.750000
mo     0.021866     0.284141     0.750000
mo     0.038255     0.497258     0.750000
mo     0.054664     0.710365     0.750000
mo     0.071053     0.923483     0.750000
mo     0.087442     0.136600     0.750000
mo     0.103831     0.349717     0.750000
mo     0.120240     0.562824     0.750000
mo     0.136629     0.775941     0.750000
mo     0.153018     0.989059     0.750000
mo     0.169407     0.202176     0.750000
mo     0.185796     0.415293     0.750000
mo     0.202205     0.628400     0.750000
mo     0.218594     0.841518     0.750000
mo     0.234983     0.054635     0.750000
mo     0.251372     0.267752     0.750000
mo     0.267761     0.480869     0.750000
mo     0.284170     0.693976     0.750000
mo     0.300560     0.907094     0.750000
mo     0.316949     0.120211     0.750000
mo     0.333338     0.333328     0.750000
mo     0.349747     0.546435     0.750000
mo     0.366136     0.759552     0.750000
mo     0.382525     0.972670     0.750000
mo     0.398914     0.185787     0.750000
mo     0.415303     0.398904     0.750000
mo     0.431712     0.612011     0.750000
mo     0.448101     0.825129     0.750000
mo     0.464490     0.038246     0.750000
mo     0.480889     0.251343     0.750000
mo     0.497278     0.464460     0.750000
mo     0.513687     0.677567     0.750000
mo     0.530076     0.890685     0.750000
mo     0.546465     0.103802     0.750000
mo     0.562854     0.316919     0.750000
mo     0.579243     0.530036     0.750000
mo     0.595652     0.743143     0.750000
mo     0.612041     0.956261     0.750000
mo     0.628430     0.169378     0.750000
mo     0.644819     0.382495     0.750000
mo     0.661228     0.595602     0.750000
mo     0.677617     0.808720     0.750000
mo     0.694006     0.021837     0.750000
mo     0.710395     0.234954     0.750000
mo     0.726784     0.448071     0.750000
mo     0.743193     0.661178     0.750000
mo     0.759582     0.874296     0.750000
mo     0.775971     0.087413     0.750000
mo     0.792360     0.300530     0.750000
mo     0.808749     0.513647     0.750000
mo     0.825158     0.726754     0.750000
mo     0.841547     0.939872     0.750000
mo     0.857936     0.152989     0.750000
mo     0.874325     0.366106     0.750000
mo     0.890734     0.579213     0.750000
mo     0.907123     0.792330     0.750000
mo     0.923512     0.005448     0.750000
mo     0.939901     0.218565     0.750000
mo     0.956290     0.431682     0.750000
mo     0.972699     0.644789     0.750000
mo     0.989088     0.857907     0.750000
s     0.000000     0.000000     0.879000
s     0.016389     0.213117     0.879000
s     0.032778     0.426234     0.879000
s     0.049187     0.639342     0.879000
s     0.065576     0.852459     0.879000
s     0.081965     0.065576     0.879000
s     0.098354     0.278693     0.879000
s     0.114743     0.491810     0.879000
s     0.131152     0.704918     0.879000
s     0.147541     0.918035     0.879000
s     0.163930     0.131152     0.879000
s     0.180319     0.344269     0.879000
s     0.196728     0.557377     0.879000
s     0.213117     0.770494     0.879000
s     0.229506     0.983611     0.879000
s     0.245895     0.196728     0.879000
s     0.262284     0.409845     0.879000
s     0.278693     0.622953     0.879000
s     0.295082     0.836070     0.879000
s     0.311471     0.049187     0.879000
s     0.327860     0.262304     0.879000
s     0.344249     0.475421     0.879000
s     0.360658     0.688529     0.879000
s     0.377047     0.901646     0.879000
s     0.393436     0.114763     0.879000
s     0.409825     0.327880     0.879000
s     0.426214     0.540998     0.879000
s     0.442623     0.754105     0.879000
s     0.459012     0.967222     0.879000
s     0.475401     0.180339     0.879000
s     0.491800     0.393436     0.879000
s     0.508210     0.606544     0.879000
s     0.524599     0.819661     0.879000
s     0.540988     0.032778     0.879000
s     0.557377     0.245895     0.879000
s     0.573766     0.459012     0.879000
s     0.590175     0.672120     0.879000
s     0.606564     0.885237     0.879000
s     0.622953     0.098354     0.879000
s     0.639342     0.311471     0.879000
s     0.655731     0.524589     0.879000
s     0.672140     0.737696     0.879000
s     0.688529     0.950813     0.879000
s     0.704918     0.163930     0.879000
s     0.721307     0.377047     0.879000
s     0.737716     0.590155     0.879000
s     0.754105     0.803272     0.879000
s     0.770494     0.016389     0.879000
s     0.786883     0.229506     0.879000
s     0.803272     0.442623     0.879000
s     0.819681     0.655731     0.879000
s     0.836070     0.868848     0.879000
s     0.852459     0.081965     0.879000
s     0.868848     0.295082     0.879000
s     0.885237     0.508200     0.879000
s     0.901646     0.721307     0.879000
s     0.918035     0.934424     0.879000
s     0.934424     0.147541     0.879000
s     0.950813     0.360658     0.879000
s     0.967222     0.573766     0.879000
s     0.983611     0.786883     0.879000

K_POINTS automatic
8 8 1 1 1 1

CELL_PARAMETERS bohr
     46.396213        -2.976318  0.000000
     25.775674        38.692140  0.000000
     0.000000         0.000000   23.243630
