&control
 title='crystal',
 prefix='crystal',
 pseudo_dir='.',
 calculation='relax',
 etot_conv_thr=1.0D-5,
 forc_conv_thr=1.0D-4,
/
&system
 ibrav=0,
 nat= 402,
 ntyp= 2,
 ecutwfc=80.0,
 ecutrho=800.0,
 xdm=.true.,
 xdm_a1=0.6512,
 xdm_a2=1.4633,
/
&electrons
 conv_thr = 1d-8
/
&ions
/
&cell
/
ATOMIC_SPECIES
s     32.06 s.UPF
mo     95.95 mo.UPF

ATOMIC_POSITIONS crystal
s     0.000000     0.000000     0.121000
s     0.014925     0.552239     0.121000
s     0.029851     0.104478     0.121000
s     0.044776     0.656716     0.121000
s     0.059701     0.208955     0.121000
s     0.074627     0.761194     0.121000
s     0.089552     0.313433     0.121000
s     0.104478     0.865672     0.121000
s     0.119403     0.417910     0.121000
s     0.134328     0.970149     0.121000
s     0.149254     0.522388     0.121000
s     0.164179     0.074627     0.121000
s     0.179104     0.626866     0.121000
s     0.194030     0.179104     0.121000
s     0.208955     0.731343     0.121000
s     0.223881     0.283582     0.121000
s     0.238806     0.835821     0.121000
s     0.253731     0.388060     0.121000
s     0.268657     0.940299     0.121000
s     0.283582     0.492537     0.121000
s     0.298507     0.044776     0.121000
s     0.313433     0.597015     0.121000
s     0.328358     0.149254     0.121000
s     0.343284     0.701493     0.121000
s     0.358209     0.253731     0.121000
s     0.373134     0.805970     0.121000
s     0.388060     0.358209     0.121000
s     0.402985     0.910448     0.121000
s     0.417910     0.462687     0.121000
s     0.432836     0.014925     0.121000
s     0.447761     0.567164     0.121000
s     0.462687     0.119403     0.121000
s     0.477612     0.671642     0.121000
s     0.492537     0.223881     0.121000
s     0.507463     0.776119     0.121000
s     0.522388     0.328358     0.121000
s     0.537313     0.880597     0.121000
s     0.552239     0.432836     0.121000
s     0.567164     0.985075     0.121000
s     0.582090     0.537313     0.121000
s     0.597015     0.089552     0.121000
s     0.611940     0.641791     0.121000
s     0.626866     0.194030     0.121000
s     0.641791     0.746269     0.121000
s     0.656716     0.298507     0.121000
s     0.671642     0.850746     0.121000
s     0.686567     0.402985     0.121000
s     0.701493     0.955224     0.121000
s     0.716418     0.507463     0.121000
s     0.731343     0.059701     0.121000
s     0.746269     0.611940     0.121000
s     0.761194     0.164179     0.121000
s     0.776119     0.716418     0.121000
s     0.791045     0.268657     0.121000
s     0.805970     0.820896     0.121000
s     0.820896     0.373134     0.121000
s     0.835821     0.925373     0.121000
s     0.850746     0.477612     0.121000
s     0.865672     0.029851     0.121000
s     0.880597     0.582090     0.121000
s     0.895522     0.134328     0.121000
s     0.910448     0.686567     0.121000
s     0.925373     0.238806     0.121000
s     0.940299     0.791045     0.121000
s     0.955224     0.343284     0.121000
s     0.970149     0.895522     0.121000
s     0.985075     0.447761     0.121000
mo     0.009934     0.368170     0.250000
mo     0.024860     0.920409     0.250000
mo     0.039785     0.472648     0.250000
mo     0.054710     0.024887     0.250000
mo     0.069636     0.577125     0.250000
mo     0.084561     0.129364     0.250000
mo     0.099487     0.681603     0.250000
mo     0.114412     0.233842     0.250000
mo     0.129337     0.786081     0.250000
mo     0.144263     0.338319     0.250000
mo     0.159188     0.890558     0.250000
mo     0.174113     0.442797     0.250000
mo     0.189039     0.995036     0.250000
mo     0.203964     0.547275     0.250000
mo     0.218890     0.099513     0.250000
mo     0.233815     0.651752     0.250000
mo     0.248740     0.203991     0.250000
mo     0.263666     0.756230     0.250000
mo     0.278591     0.308469     0.250000
mo     0.293516     0.860707     0.250000
mo     0.308442     0.412946     0.250000
mo     0.323367     0.965185     0.250000
mo     0.338293     0.517424     0.250000
mo     0.353218     0.069663     0.250000
mo     0.368143     0.621901     0.250000
mo     0.383069     0.174140     0.250000
mo     0.397994     0.726379     0.250000
mo     0.412919     0.278618     0.250000
mo     0.427845     0.830857     0.250000
mo     0.442770     0.383096     0.250000
mo     0.457696     0.935334     0.250000
mo     0.472621     0.487573     0.250000
mo     0.487546     0.039812     0.250000
mo     0.502472     0.592051     0.250000
mo     0.517397     0.144290     0.250000
mo     0.532322     0.696528     0.250000
mo     0.547248     0.248767     0.250000
mo     0.562173     0.801006     0.250000
mo     0.577099     0.353245     0.250000
mo     0.592024     0.905484     0.250000
mo     0.606949     0.457722     0.250000
mo     0.621875     0.009961     0.250000
mo     0.636800     0.562200     0.250000
mo     0.651725     0.114439     0.250000
mo     0.666651     0.666678     0.250000
mo     0.681576     0.218916     0.250000
mo     0.696501     0.771155     0.250000
mo     0.711427     0.323394     0.250000
mo     0.726352     0.875633     0.250000
mo     0.741278     0.427872     0.250000
mo     0.756203     0.980110     0.250000
mo     0.771128     0.532349     0.250000
mo     0.786054     0.084588     0.250000
mo     0.800979     0.636827     0.250000
mo     0.815904     0.189066     0.250000
mo     0.830830     0.741304     0.250000
mo     0.845755     0.293543     0.250000
mo     0.860681     0.845782     0.250000
mo     0.875606     0.398021     0.250000
mo     0.890531     0.950260     0.250000
mo     0.905457     0.502499     0.250000
mo     0.920382     0.054737     0.250000
mo     0.935307     0.606976     0.250000
mo     0.950233     0.159215     0.250000
mo     0.965158     0.711454     0.250000
mo     0.980084     0.263693     0.250000
mo     0.995009     0.815931     0.250000
s     0.000000     0.000000     0.379000
s     0.014925     0.552239     0.379000
s     0.029851     0.104478     0.379000
s     0.044776     0.656716     0.379000
s     0.059701     0.208955     0.379000
s     0.074627     0.761194     0.379000
s     0.089552     0.313433     0.379000
s     0.104478     0.865672     0.379000
s     0.119403     0.417910     0.379000
s     0.134328     0.970149     0.379000
s     0.149254     0.522388     0.379000
s     0.164179     0.074627     0.379000
s     0.179104     0.626866     0.379000
s     0.194030     0.179104     0.379000
s     0.208955     0.731343     0.379000
s     0.223881     0.283582     0.379000
s     0.238806     0.835821     0.379000
s     0.253731     0.388060     0.379000
s     0.268657     0.940299     0.379000
s     0.283582     0.492537     0.379000
s     0.298507     0.044776     0.379000
s     0.313433     0.597015     0.379000
s     0.328358     0.149254     0.379000
s     0.343284     0.701493     0.379000
s     0.358209     0.253731     0.379000
s     0.373134     0.805970     0.379000
s     0.388060     0.358209     0.379000
s     0.402985     0.910448     0.379000
s     0.417910     0.462687     0.379000
s     0.432836     0.014925     0.379000
s     0.447761     0.567164     0.379000
s     0.462687     0.119403     0.379000
s     0.477612     0.671642     0.379000
s     0.492537     0.223881     0.379000
s     0.507463     0.776119     0.379000
s     0.522388     0.328358     0.379000
s     0.537313     0.880597     0.379000
s     0.552239     0.432836     0.379000
s     0.567164     0.985075     0.379000
s     0.582090     0.537313     0.379000
s     0.597015     0.089552     0.379000
s     0.611940     0.641791     0.379000
s     0.626866     0.194030     0.379000
s     0.641791     0.746269     0.379000
s     0.656716     0.298507     0.379000
s     0.671642     0.850746     0.379000
s     0.686567     0.402985     0.379000
s     0.701493     0.955224     0.379000
s     0.716418     0.507463     0.379000
s     0.731343     0.059701     0.379000
s     0.746269     0.611940     0.379000
s     0.761194     0.164179     0.379000
s     0.776119     0.716418     0.379000
s     0.791045     0.268657     0.379000
s     0.805970     0.820896     0.379000
s     0.820896     0.373134     0.379000
s     0.835821     0.925373     0.379000
s     0.850746     0.477612     0.379000
s     0.865672     0.029851     0.379000
s     0.880597     0.582090     0.379000
s     0.895522     0.134328     0.379000
s     0.910448     0.686567     0.379000
s     0.925373     0.238806     0.379000
s     0.940299     0.791045     0.379000
s     0.955224     0.343284     0.379000
s     0.970149     0.895522     0.379000
s     0.985075     0.447761     0.379000
s     0.000000     0.000000     0.621000
s     0.014949     0.432823     0.621000
s     0.029844     0.865674     0.621000
s     0.044794     0.298497     0.621000
s     0.059689     0.731347     0.621000
s     0.074638     0.164171     0.621000
s     0.089533     0.597021     0.621000
s     0.104482     0.029844     0.621000
s     0.119431     0.462667     0.621000
s     0.134326     0.895518     0.621000
s     0.149276     0.328341     0.621000
s     0.164171     0.761192     0.621000
s     0.179120     0.194015     0.621000
s     0.194015     0.626865     0.621000
s     0.208964     0.059689     0.621000
s     0.223913     0.492512     0.621000
s     0.238808     0.925362     0.621000
s     0.253758     0.358185     0.621000
s     0.268653     0.791036     0.621000
s     0.283602     0.223859     0.621000
s     0.298497     0.656710     0.621000
s     0.313446     0.089533     0.621000
s     0.328396     0.522356     0.621000
s     0.343290     0.955206     0.621000
s     0.358240     0.388030     0.621000
s     0.373135     0.820880     0.621000
s     0.388084     0.253703     0.621000
s     0.402979     0.686554     0.621000
s     0.417928     0.119377     0.621000
s     0.432823     0.552227     0.621000
s     0.447773     0.985051     0.621000
s     0.462722     0.417874     0.621000
s     0.477590     0.850779     0.621000
s     0.492539     0.283602     0.621000
s     0.507434     0.716452     0.621000
s     0.522383     0.149276     0.621000
s     0.537278     0.582126     0.621000
s     0.552227     0.014949     0.621000
s     0.567177     0.447773     0.621000
s     0.582072     0.880623     0.621000
s     0.597021     0.313446     0.621000
s     0.611916     0.746297     0.621000
s     0.626865     0.179120     0.621000
s     0.641760     0.611970     0.621000
s     0.656710     0.044794     0.621000
s     0.671659     0.477617     0.621000
s     0.686554     0.910467     0.621000
s     0.701503     0.343290     0.621000
s     0.716398     0.776141     0.621000
s     0.731347     0.208964     0.621000
s     0.746242     0.641815     0.621000
s     0.761192     0.074638     0.621000
s     0.776141     0.507461     0.621000
s     0.791036     0.940311     0.621000
s     0.805985     0.373135     0.621000
s     0.820880     0.805985     0.621000
s     0.835829     0.238808     0.621000
s     0.850724     0.671659     0.621000
s     0.865674     0.104482     0.621000
s     0.880623     0.537305     0.621000
s     0.895518     0.970156     0.621000
s     0.910467     0.402979     0.621000
s     0.925362     0.835829     0.621000
s     0.940311     0.268653     0.621000
s     0.955206     0.701503     0.621000
s     0.970156     0.134326     0.621000
s     0.985051     0.567177     0.621000
mo     0.009941     0.621884     0.750000
mo     0.024890     0.054708     0.750000
mo     0.039840     0.487531     0.750000
mo     0.054734     0.920381     0.750000
mo     0.069684     0.353205     0.750000
mo     0.084579     0.786055     0.750000
mo     0.099528     0.218878     0.750000
mo     0.114423     0.651729     0.750000
mo     0.129372     0.084552     0.750000
mo     0.144322     0.517375     0.750000
mo     0.159217     0.950226     0.750000
mo     0.174166     0.383049     0.750000
mo     0.189061     0.815899     0.750000
mo     0.204010     0.248722     0.750000
mo     0.218905     0.681573     0.750000
mo     0.233854     0.114396     0.750000
mo     0.248749     0.547247     0.750000
mo     0.263699     0.980070     0.750000
mo     0.278648     0.412893     0.750000
mo     0.293543     0.845743     0.750000
mo     0.308492     0.278567     0.750000
mo     0.323387     0.711417     0.750000
mo     0.338336     0.144240     0.750000
mo     0.353231     0.577091     0.750000
mo     0.368181     0.009914     0.750000
mo     0.383130     0.442737     0.750000
mo     0.398025     0.875588     0.750000
mo     0.412974     0.308411     0.750000
mo     0.427869     0.741261     0.750000
mo     0.442819     0.174085     0.750000
mo     0.457713     0.606935     0.750000
mo     0.472636     0.039813     0.750000
mo     0.487585     0.472636     0.750000
mo     0.502480     0.905486     0.750000
mo     0.517429     0.338310     0.750000
mo     0.532324     0.771160     0.750000
mo     0.547273     0.203983     0.750000
mo     0.562168     0.636834     0.750000
mo     0.577118     0.069657     0.750000
mo     0.592067     0.502480     0.750000
mo     0.606962     0.935331     0.750000
mo     0.621911     0.368154     0.750000
mo     0.636806     0.801004     0.750000
mo     0.651755     0.233828     0.750000
mo     0.666650     0.666678     0.750000
mo     0.681600     0.099501     0.750000
mo     0.696549     0.532324     0.750000
mo     0.711444     0.965175     0.750000
mo     0.726393     0.397998     0.750000
mo     0.741288     0.830849     0.750000
mo     0.756238     0.263672     0.750000
mo     0.771133     0.696522     0.750000
mo     0.786082     0.129345     0.750000
mo     0.800977     0.562196     0.750000
mo     0.815926     0.995019     0.750000
mo     0.830875     0.427842     0.750000
mo     0.845770     0.860693     0.750000
mo     0.860720     0.293516     0.750000
mo     0.875615     0.726366     0.750000
mo     0.890564     0.159190     0.750000
mo     0.905459     0.592040     0.750000
mo     0.920408     0.024863     0.750000
mo     0.935357     0.457687     0.750000
mo     0.950252     0.890537     0.750000
mo     0.965202     0.323360     0.750000
mo     0.980097     0.756211     0.750000
mo     0.995046     0.189034     0.750000
s     0.000000     0.000000     0.879000
s     0.014949     0.432823     0.879000
s     0.029844     0.865674     0.879000
s     0.044794     0.298497     0.879000
s     0.059689     0.731347     0.879000
s     0.074638     0.164171     0.879000
s     0.089533     0.597021     0.879000
s     0.104482     0.029844     0.879000
s     0.119431     0.462667     0.879000
s     0.134326     0.895518     0.879000
s     0.149276     0.328341     0.879000
s     0.164171     0.761192     0.879000
s     0.179120     0.194015     0.879000
s     0.194015     0.626865     0.879000
s     0.208964     0.059689     0.879000
s     0.223913     0.492512     0.879000
s     0.238808     0.925362     0.879000
s     0.253758     0.358185     0.879000
s     0.268653     0.791036     0.879000
s     0.283602     0.223859     0.879000
s     0.298497     0.656710     0.879000
s     0.313446     0.089533     0.879000
s     0.328396     0.522356     0.879000
s     0.343290     0.955206     0.879000
s     0.358240     0.388030     0.879000
s     0.373135     0.820880     0.879000
s     0.388084     0.253703     0.879000
s     0.402979     0.686554     0.879000
s     0.417928     0.119377     0.879000
s     0.432823     0.552227     0.879000
s     0.447773     0.985051     0.879000
s     0.462722     0.417874     0.879000
s     0.477590     0.850779     0.879000
s     0.492539     0.283602     0.879000
s     0.507434     0.716452     0.879000
s     0.522383     0.149276     0.879000
s     0.537278     0.582126     0.879000
s     0.552227     0.014949     0.879000
s     0.567177     0.447773     0.879000
s     0.582072     0.880623     0.879000
s     0.597021     0.313446     0.879000
s     0.611916     0.746297     0.879000
s     0.626865     0.179120     0.879000
s     0.641760     0.611970     0.879000
s     0.656710     0.044794     0.879000
s     0.671659     0.477617     0.879000
s     0.686554     0.910467     0.879000
s     0.701503     0.343290     0.879000
s     0.716398     0.776141     0.879000
s     0.731347     0.208964     0.879000
s     0.746242     0.641815     0.879000
s     0.761192     0.074638     0.879000
s     0.776141     0.507461     0.879000
s     0.791036     0.940311     0.879000
s     0.805985     0.373135     0.879000
s     0.820880     0.805985     0.879000
s     0.835829     0.238808     0.879000
s     0.850724     0.671659     0.879000
s     0.865674     0.104482     0.879000
s     0.880623     0.537305     0.879000
s     0.895518     0.970156     0.879000
s     0.910467     0.402979     0.879000
s     0.925362     0.835829     0.879000
s     0.940311     0.268653     0.879000
s     0.955206     0.701503     0.879000
s     0.970156     0.134326     0.879000
s     0.985051     0.567177     0.879000

K_POINTS automatic
8 8 1 1 1 1

CELL_PARAMETERS bohr
     46.396213        -14.881592  0.000000
     36.085943        32.739503   0.000000
     0.000000         0.000000    23.243630
