&control
 title='crystal',
 prefix='crystal',
 pseudo_dir='.',
 calculation='relax',
 etot_conv_thr=1.0D-5,
 forc_conv_thr=1.0D-4,
/
&system
 ibrav=0,
 nat= 474,
 ntyp= 2,
 ecutwfc=80.0,
 ecutrho=800.0,
 xdm=.true.,
 xdm_a1=0.6512,
 xdm_a2=1.4633,
/
&electrons
 conv_thr = 1d-8
/
&ions
/
&cell
/
ATOMIC_SPECIES
s     32.06 s.UPF
mo     95.95 mo.UPF

ATOMIC_POSITIONS crystal
s     0.008453     0.464124     0.121000
s     0.021111     0.160327     0.121000
s     0.033770     0.856529     0.121000
s     0.046428     0.552732     0.121000
s     0.059086     0.248934     0.121000
s     0.071744     0.945137     0.121000
s     0.084403     0.641339     0.121000
s     0.097061     0.337542     0.121000
s     0.109719     0.033744     0.121000
s     0.122377     0.729947     0.121000
s     0.135035     0.426149     0.121000
s     0.147694     0.122352     0.121000
s     0.160352     0.818554     0.121000
s     0.173010     0.514757     0.121000
s     0.185668     0.210959     0.121000
s     0.198327     0.907162     0.121000
s     0.210985     0.603365     0.121000
s     0.223643     0.299567     0.121000
s     0.236301     0.995770     0.121000
s     0.248959     0.691972     0.121000
s     0.261618     0.388175     0.121000
s     0.274276     0.084377     0.121000
s     0.286934     0.780580     0.121000
s     0.299592     0.476782     0.121000
s     0.312251     0.172985     0.121000
s     0.324909     0.869187     0.121000
s     0.337567     0.565390     0.121000
s     0.350225     0.261592     0.121000
s     0.362884     0.957795     0.121000
s     0.375542     0.653997     0.121000
s     0.388200     0.350200     0.121000
s     0.400858     0.046403     0.121000
s     0.413516     0.742605     0.121000
s     0.426175     0.438808     0.121000
s     0.438833     0.135010     0.121000
s     0.451491     0.831213     0.121000
s     0.464149     0.527415     0.121000
s     0.476808     0.223618     0.121000
s     0.489466     0.919820     0.121000
s     0.502124     0.616023     0.121000
s     0.514782     0.312225     0.121000
s     0.527441     0.008428     0.121000
s     0.540099     0.704630     0.121000
s     0.552757     0.400833     0.121000
s     0.565415     0.097035     0.121000
s     0.578073     0.793238     0.121000
s     0.590732     0.489441     0.121000
s     0.603390     0.185643     0.121000
s     0.616048     0.881846     0.121000
s     0.628706     0.578048     0.121000
s     0.641365     0.274251     0.121000
s     0.654023     0.970453     0.121000
s     0.666681     0.666656     0.121000
s     0.679339     0.362858     0.121000
s     0.691997     0.059061     0.121000
s     0.704656     0.755263     0.121000
s     0.717314     0.451466     0.121000
s     0.729972     0.147668     0.121000
s     0.742630     0.843871     0.121000
s     0.755289     0.540073     0.121000
s     0.767947     0.236276     0.121000
s     0.780605     0.932478     0.121000
s     0.793263     0.628681     0.121000
s     0.805922     0.324884     0.121000
s     0.818580     0.021086     0.121000
s     0.831238     0.717289     0.121000
s     0.843896     0.413491     0.121000
s     0.856554     0.109694     0.121000
s     0.869213     0.805896     0.121000
s     0.881871     0.502099     0.121000
s     0.894529     0.198301     0.121000
s     0.907187     0.894504     0.121000
s     0.919846     0.590706     0.121000
s     0.932504     0.286909     0.121000
s     0.945162     0.983111     0.121000
s     0.957820     0.679314     0.121000
s     0.970478     0.375516     0.121000
s     0.983137     0.071719     0.121000
s     0.995795     0.767922     0.121000
mo     0.000000     0.000000     0.250000
mo     0.012658     0.696203     0.250000
mo     0.025316     0.392405     0.250000
mo     0.037975     0.088608     0.250000
mo     0.050633     0.784810     0.250000
mo     0.063291     0.481013     0.250000
mo     0.075949     0.177215     0.250000
mo     0.088608     0.873418     0.250000
mo     0.101266     0.569620     0.250000
mo     0.113924     0.265823     0.250000
mo     0.126582     0.962025     0.250000
mo     0.139241     0.658228     0.250000
mo     0.151899     0.354430     0.250000
mo     0.164557     0.050633     0.250000
mo     0.177215     0.746835     0.250000
mo     0.189873     0.443038     0.250000
mo     0.202532     0.139241     0.250000
mo     0.215190     0.835443     0.250000
mo     0.227848     0.531646     0.250000
mo     0.240506     0.227848     0.250000
mo     0.253165     0.924051     0.250000
mo     0.265823     0.620253     0.250000
mo     0.278481     0.316456     0.250000
mo     0.291139     0.012658     0.250000
mo     0.303797     0.708861     0.250000
mo     0.316456     0.405063     0.250000
mo     0.329114     0.101266     0.250000
mo     0.341772     0.797468     0.250000
mo     0.354430     0.493671     0.250000
mo     0.367089     0.189873     0.250000
mo     0.379747     0.886076     0.250000
mo     0.392405     0.582278     0.250000
mo     0.405063     0.278481     0.250000
mo     0.417722     0.974684     0.250000
mo     0.430380     0.670886     0.250000
mo     0.443038     0.367089     0.250000
mo     0.455696     0.063291     0.250000
mo     0.468354     0.759494     0.250000
mo     0.481013     0.455696     0.250000
mo     0.493671     0.151899     0.250000
mo     0.506329     0.848101     0.250000
mo     0.518987     0.544304     0.250000
mo     0.531646     0.240506     0.250000
mo     0.544304     0.936709     0.250000
mo     0.556962     0.632911     0.250000
mo     0.569620     0.329114     0.250000
mo     0.582278     0.025316     0.250000
mo     0.594937     0.721519     0.250000
mo     0.607595     0.417722     0.250000
mo     0.620253     0.113924     0.250000
mo     0.632911     0.810127     0.250000
mo     0.645570     0.506329     0.250000
mo     0.658228     0.202532     0.250000
mo     0.670886     0.898734     0.250000
mo     0.683544     0.594937     0.250000
mo     0.696203     0.291139     0.250000
mo     0.708861     0.987342     0.250000
mo     0.721519     0.683544     0.250000
mo     0.734177     0.379747     0.250000
mo     0.746835     0.075949     0.250000
mo     0.759494     0.772152     0.250000
mo     0.772152     0.468354     0.250000
mo     0.784810     0.164557     0.250000
mo     0.797468     0.860759     0.250000
mo     0.810127     0.556962     0.250000
mo     0.822785     0.253165     0.250000
mo     0.835443     0.949367     0.250000
mo     0.848101     0.645570     0.250000
mo     0.860759     0.341772     0.250000
mo     0.873418     0.037975     0.250000
mo     0.886076     0.734177     0.250000
mo     0.898734     0.430380     0.250000
mo     0.911392     0.126582     0.250000
mo     0.924051     0.822785     0.250000
mo     0.936709     0.518987     0.250000
mo     0.949367     0.215190     0.250000
mo     0.962025     0.911392     0.250000
mo     0.974684     0.607595     0.250000
mo     0.987342     0.303797     0.250000
s     0.008453     0.464124     0.379000
s     0.021111     0.160327     0.379000
s     0.033770     0.856529     0.379000
s     0.046428     0.552732     0.379000
s     0.059086     0.248934     0.379000
s     0.071744     0.945137     0.379000
s     0.084403     0.641339     0.379000
s     0.097061     0.337542     0.379000
s     0.109719     0.033744     0.379000
s     0.122377     0.729947     0.379000
s     0.135035     0.426149     0.379000
s     0.147694     0.122352     0.379000
s     0.160352     0.818554     0.379000
s     0.173010     0.514757     0.379000
s     0.185668     0.210959     0.379000
s     0.198327     0.907162     0.379000
s     0.210985     0.603365     0.379000
s     0.223643     0.299567     0.379000
s     0.236301     0.995770     0.379000
s     0.248959     0.691972     0.379000
s     0.261618     0.388175     0.379000
s     0.274276     0.084377     0.379000
s     0.286934     0.780580     0.379000
s     0.299592     0.476782     0.379000
s     0.312251     0.172985     0.379000
s     0.324909     0.869187     0.379000
s     0.337567     0.565390     0.379000
s     0.350225     0.261592     0.379000
s     0.362884     0.957795     0.379000
s     0.375542     0.653997     0.379000
s     0.388200     0.350200     0.379000
s     0.400858     0.046403     0.379000
s     0.413516     0.742605     0.379000
s     0.426175     0.438808     0.379000
s     0.438833     0.135010     0.379000
s     0.451491     0.831213     0.379000
s     0.464149     0.527415     0.379000
s     0.476808     0.223618     0.379000
s     0.489466     0.919820     0.379000
s     0.502124     0.616023     0.379000
s     0.514782     0.312225     0.379000
s     0.527441     0.008428     0.379000
s     0.540099     0.704630     0.379000
s     0.552757     0.400833     0.379000
s     0.565415     0.097035     0.379000
s     0.578073     0.793238     0.379000
s     0.590732     0.489441     0.379000
s     0.603390     0.185643     0.379000
s     0.616048     0.881846     0.379000
s     0.628706     0.578048     0.379000
s     0.641365     0.274251     0.379000
s     0.654023     0.970453     0.379000
s     0.666681     0.666656     0.379000
s     0.679339     0.362858     0.379000
s     0.691997     0.059061     0.379000
s     0.704656     0.755263     0.379000
s     0.717314     0.451466     0.379000
s     0.729972     0.147668     0.379000
s     0.742630     0.843871     0.379000
s     0.755289     0.540073     0.379000
s     0.767947     0.236276     0.379000
s     0.780605     0.932478     0.379000
s     0.793263     0.628681     0.379000
s     0.805922     0.324884     0.379000
s     0.818580     0.021086     0.379000
s     0.831238     0.717289     0.379000
s     0.843896     0.413491     0.379000
s     0.856554     0.109694     0.379000
s     0.869213     0.805896     0.379000
s     0.881871     0.502099     0.379000
s     0.894529     0.198301     0.379000
s     0.907187     0.894504     0.379000
s     0.919846     0.590706     0.379000
s     0.932504     0.286909     0.379000
s     0.945162     0.983111     0.379000
s     0.957820     0.679314     0.379000
s     0.970478     0.375516     0.379000
s     0.983137     0.071719     0.379000
s     0.995795     0.767922     0.379000
s     0.000000     0.000000     0.621000
s     0.012671     0.291132     0.621000
s     0.025299     0.582287     0.621000
s     0.037970     0.873419     0.621000
s     0.050641     0.164551     0.621000
s     0.063313     0.455683     0.621000
s     0.075940     0.746838     0.621000
s     0.088611     0.037970     0.621000
s     0.101282     0.329102     0.621000
s     0.113910     0.620256     0.621000
s     0.126581     0.911389     0.621000
s     0.139252     0.202521     0.621000
s     0.151924     0.493653     0.621000
s     0.164551     0.784808     0.621000
s     0.177222     0.075940     0.621000
s     0.189894     0.367072     0.621000
s     0.202521     0.658226     0.621000
s     0.215192     0.949359     0.621000
s     0.227864     0.240491     0.621000
s     0.240491     0.531645     0.621000
s     0.253162     0.822778     0.621000
s     0.265834     0.113910     0.621000
s     0.278505     0.405042     0.621000
s     0.291132     0.696196     0.621000
s     0.303804     0.987329     0.621000
s     0.316475     0.278461     0.621000
s     0.329102     0.569615     0.621000
s     0.341774     0.860748     0.621000
s     0.354445     0.151880     0.621000
s     0.367116     0.443012     0.621000
s     0.379744     0.734166     0.621000
s     0.392415     0.025299     0.621000
s     0.405086     0.316431     0.621000
s     0.417713     0.607585     0.621000
s     0.430385     0.898718     0.621000
s     0.443056     0.189850     0.621000
s     0.455727     0.480982     0.621000
s     0.468355     0.772136     0.621000
s     0.481026     0.063269     0.621000
s     0.493697     0.354401     0.621000
s     0.506325     0.645555     0.621000
s     0.518996     0.936687     0.621000
s     0.531667     0.227820     0.621000
s     0.544273     0.519018     0.621000
s     0.556944     0.810150     0.621000
s     0.569615     0.101282     0.621000
s     0.582287     0.392415     0.621000
s     0.594914     0.683569     0.621000
s     0.607585     0.974701     0.621000
s     0.620256     0.265834     0.621000
s     0.632884     0.556988     0.621000
s     0.645555     0.848120     0.621000
s     0.658226     0.139252     0.621000
s     0.670898     0.430385     0.621000
s     0.683525     0.721539     0.621000
s     0.696196     0.012671     0.621000
s     0.708868     0.303804     0.621000
s     0.721495     0.594958     0.621000
s     0.734166     0.886090     0.621000
s     0.746838     0.177222     0.621000
s     0.759509     0.468355     0.621000
s     0.772136     0.759509     0.621000
s     0.784808     0.050641     0.621000
s     0.797479     0.341774     0.621000
s     0.810106     0.632928     0.621000
s     0.822778     0.924060     0.621000
s     0.835449     0.215192     0.621000
s     0.848120     0.506325     0.621000
s     0.860748     0.797479     0.621000
s     0.873419     0.088611     0.621000
s     0.886090     0.379744     0.621000
s     0.898718     0.670898     0.621000
s     0.911389     0.962030     0.621000
s     0.924060     0.253162     0.621000
s     0.936687     0.544317     0.621000
s     0.949359     0.835449     0.621000
s     0.962030     0.126581     0.621000
s     0.974701     0.417713     0.621000
s     0.987329     0.708868     0.621000
mo     0.004220     0.763704     0.750000
mo     0.016891     0.054836     0.750000
mo     0.029563     0.345968     0.750000
mo     0.042190     0.637123     0.750000
mo     0.054861     0.928255     0.750000
mo     0.067533     0.219387     0.750000
mo     0.080204     0.510519     0.750000
mo     0.092831     0.801674     0.750000
mo     0.105503     0.092806     0.750000
mo     0.118174     0.383938     0.750000
mo     0.130801     0.675093     0.750000
mo     0.143473     0.966225     0.750000
mo     0.156144     0.257357     0.750000
mo     0.168771     0.548511     0.750000
mo     0.181443     0.839644     0.750000
mo     0.194114     0.130776     0.750000
mo     0.206785     0.421908     0.750000
mo     0.219412     0.713062     0.750000
mo     0.232084     0.004195     0.750000
mo     0.244755     0.295327     0.750000
mo     0.257382     0.586481     0.750000
mo     0.270054     0.877614     0.750000
mo     0.282725     0.168746     0.750000
mo     0.295396     0.459878     0.750000
mo     0.308024     0.751032     0.750000
mo     0.320695     0.042165     0.750000
mo     0.333366     0.333297     0.750000
mo     0.345994     0.624451     0.750000
mo     0.358665     0.915584     0.750000
mo     0.371336     0.206716     0.750000
mo     0.384007     0.497848     0.750000
mo     0.396635     0.789002     0.750000
mo     0.409306     0.080135     0.750000
mo     0.421977     0.371267     0.750000
mo     0.434605     0.662421     0.750000
mo     0.447276     0.953554     0.750000
mo     0.459947     0.244686     0.750000
mo     0.472575     0.535840     0.750000
mo     0.485246     0.826972     0.750000
mo     0.497917     0.118105     0.750000
mo     0.510589     0.409237     0.750000
mo     0.523216     0.700391     0.750000
mo     0.535887     0.991524     0.750000
mo     0.548537     0.282700     0.750000
mo     0.561164     0.573854     0.750000
mo     0.573835     0.864986     0.750000
mo     0.586507     0.156119     0.750000
mo     0.599178     0.447251     0.750000
mo     0.611805     0.738405     0.750000
mo     0.624477     0.029537     0.750000
mo     0.637148     0.320670     0.750000
mo     0.649775     0.611824     0.750000
mo     0.662447     0.902956     0.750000
mo     0.675118     0.194088     0.750000
mo     0.687789     0.485221     0.750000
mo     0.700417     0.776375     0.750000
mo     0.713088     0.067507     0.750000
mo     0.725759     0.358640     0.750000
mo     0.738386     0.649794     0.750000
mo     0.751058     0.940926     0.750000
mo     0.763729     0.232058     0.750000
mo     0.776356     0.523213     0.750000
mo     0.789028     0.814345     0.750000
mo     0.801699     0.105477     0.750000
mo     0.814370     0.396610     0.750000
mo     0.826998     0.687764     0.750000
mo     0.839669     0.978896     0.750000
mo     0.852340     0.270028     0.750000
mo     0.864968     0.561183     0.750000
mo     0.877639     0.852315     0.750000
mo     0.890310     0.143447     0.750000
mo     0.902981     0.434580     0.750000
mo     0.915609     0.725734     0.750000
mo     0.928280     0.016866     0.750000
mo     0.940951     0.307998     0.750000
mo     0.953579     0.599153     0.750000
mo     0.966250     0.890285     0.750000
mo     0.978921     0.181417     0.750000
mo     0.991593     0.472550     0.750000
s     0.000000     0.000000     0.879000
s     0.012671     0.291132     0.879000
s     0.025299     0.582287     0.879000
s     0.037970     0.873419     0.879000
s     0.050641     0.164551     0.879000
s     0.063313     0.455683     0.879000
s     0.075940     0.746838     0.879000
s     0.088611     0.037970     0.879000
s     0.101282     0.329102     0.879000
s     0.113910     0.620256     0.879000
s     0.126581     0.911389     0.879000
s     0.139252     0.202521     0.879000
s     0.151924     0.493653     0.879000
s     0.164551     0.784808     0.879000
s     0.177222     0.075940     0.879000
s     0.189894     0.367072     0.879000
s     0.202521     0.658226     0.879000
s     0.215192     0.949359     0.879000
s     0.227864     0.240491     0.879000
s     0.240491     0.531645     0.879000
s     0.253162     0.822778     0.879000
s     0.265834     0.113910     0.879000
s     0.278505     0.405042     0.879000
s     0.291132     0.696196     0.879000
s     0.303804     0.987329     0.879000
s     0.316475     0.278461     0.879000
s     0.329102     0.569615     0.879000
s     0.341774     0.860748     0.879000
s     0.354445     0.151880     0.879000
s     0.367116     0.443012     0.879000
s     0.379744     0.734166     0.879000
s     0.392415     0.025299     0.879000
s     0.405086     0.316431     0.879000
s     0.417713     0.607585     0.879000
s     0.430385     0.898718     0.879000
s     0.443056     0.189850     0.879000
s     0.455727     0.480982     0.879000
s     0.468355     0.772136     0.879000
s     0.481026     0.063269     0.879000
s     0.493697     0.354401     0.879000
s     0.506325     0.645555     0.879000
s     0.518996     0.936687     0.879000
s     0.531667     0.227820     0.879000
s     0.544273     0.519018     0.879000
s     0.556944     0.810150     0.879000
s     0.569615     0.101282     0.879000
s     0.582287     0.392415     0.879000
s     0.594914     0.683569     0.879000
s     0.607585     0.974701     0.879000
s     0.620256     0.265834     0.879000
s     0.632884     0.556988     0.879000
s     0.645555     0.848120     0.879000
s     0.658226     0.139252     0.879000
s     0.670898     0.430385     0.879000
s     0.683525     0.721539     0.879000
s     0.696196     0.012671     0.879000
s     0.708868     0.303804     0.879000
s     0.721495     0.594958     0.879000
s     0.734166     0.886090     0.879000
s     0.746838     0.177222     0.879000
s     0.759509     0.468355     0.879000
s     0.772136     0.759509     0.879000
s     0.784808     0.050641     0.879000
s     0.797479     0.341774     0.879000
s     0.810106     0.632928     0.879000
s     0.822778     0.924060     0.879000
s     0.835449     0.215192     0.879000
s     0.848120     0.506325     0.879000
s     0.860748     0.797479     0.879000
s     0.873419     0.088611     0.879000
s     0.886090     0.379744     0.879000
s     0.898718     0.670898     0.879000
s     0.911389     0.962030     0.879000
s     0.924060     0.253162     0.879000
s     0.936687     0.544317     0.879000
s     0.949359     0.835449     0.879000
s     0.962030     0.126581     0.879000
s     0.974701     0.417713     0.879000
s     0.987329     0.708868     0.879000

K_POINTS automatic
8 8 1 1 1 1

CELL_PARAMETERS bohr
     51.551347        -11.905274  0.000000
     36.085943        38.692140   0.000000
     0.000000         0.000000    23.243630
