&control
 title='crystal',
 prefix='crystal',
 pseudo_dir='.',
 calculation='relax',
 etot_conv_thr=1.0D-5,
 forc_conv_thr=1.0D-4,
/
&system
 ibrav=0,
 nat= 42,
 ntyp= 2,
 ecutwfc=80.0,
 ecutrho=800.0,
 xdm=.true.,
 xdm_a1=0.6512,
 xdm_a2=1.4633,
/
&electrons
 conv_thr = 1d-8
/
&ions
/
&cell
/
ATOMIC_SPECIES
s     32.06 s.UPF
mo     95.95 mo.UPF

ATOMIC_POSITIONS crystal
s     0.095286     0.523771     0.121000
s     0.238143     0.809486     0.121000
s     0.381000     0.095200     0.121000
s     0.523857     0.380914     0.121000
s     0.666714     0.666629     0.121000
s     0.809571     0.952343     0.121000
s     0.952429     0.238057     0.121000
mo     0.000000     0.000000     0.250000
mo     0.142857     0.285714     0.250000
mo     0.285714     0.571429     0.250000
mo     0.428571     0.857143     0.250000
mo     0.571429     0.142857     0.250000
mo     0.714286     0.428571     0.250000
mo     0.857143     0.714286     0.250000
s     0.095286     0.523771     0.379000
s     0.238143     0.809486     0.379000
s     0.381000     0.095200     0.379000
s     0.523857     0.380914     0.379000
s     0.666714     0.666629     0.379000
s     0.809571     0.952343     0.379000
s     0.952429     0.238057     0.379000
s     0.095228     0.380982     0.621000
s     0.238062     0.952415     0.621000
s     0.380961     0.523816     0.621000
s     0.523795     0.095249     0.621000
s     0.666596     0.666747     0.621000
s     0.809495     0.238147     0.621000
s     0.952329     0.809581     0.621000
mo     0.000000     0.000000     0.750000
mo     0.142834     0.571433     0.750000
mo     0.285733     0.142834     0.750000
mo     0.428567     0.714267     0.750000
mo     0.571433     0.285733     0.750000
mo     0.714267     0.857166     0.750000
mo     0.857166     0.428567     0.750000
s     0.095228     0.380982     0.879000
s     0.238062     0.952415     0.879000
s     0.380961     0.523816     0.879000
s     0.523795     0.095249     0.879000
s     0.666596     0.666747     0.879000
s     0.809495     0.238147     0.879000
s     0.952329     0.809581     0.879000

K_POINTS automatic
8 8 1 1 1 1

CELL_PARAMETERS bohr
     15.465404        -2.976318  0.000000
     10.310269        11.905274  0.000000
     0.000000         0.000000   23.243630
