&control
 title='crystal',
 prefix='crystal',
 pseudo_dir='.',
 calculation='relax',
 etot_conv_thr=1.0D-5,
 forc_conv_thr=1.0D-4,
/
&system
 ibrav=0,
 nat= 546,
 ntyp= 2,
 ecutwfc=80.0,
 ecutrho=800.0,
 xdm=.true.,
 xdm_a1=0.6512,
 xdm_a2=1.4633,
/
&electrons
 conv_thr = 1d-8
/
&ions
/
&cell
/
ATOMIC_SPECIES
s     32.06 s.UPF
mo     95.95 mo.UPF

ATOMIC_POSITIONS crystal
s     0.007338     0.875446     0.121000
s     0.018327     0.688633     0.121000
s     0.029316     0.501820     0.121000
s     0.040305     0.315007     0.121000
s     0.051295     0.128193     0.121000
s     0.062284     0.941380     0.121000
s     0.073273     0.754567     0.121000
s     0.084262     0.567754     0.121000
s     0.095251     0.380941     0.121000
s     0.106240     0.194127     0.121000
s     0.117229     0.007314     0.121000
s     0.128218     0.820501     0.121000
s     0.139207     0.633688     0.121000
s     0.150196     0.446875     0.121000
s     0.161185     0.260062     0.121000
s     0.172174     0.073248     0.121000
s     0.183163     0.886435     0.121000
s     0.194152     0.699622     0.121000
s     0.205141     0.512809     0.121000
s     0.216130     0.325996     0.121000
s     0.227119     0.139182     0.121000
s     0.238108     0.952369     0.121000
s     0.249097     0.765556     0.121000
s     0.260086     0.578743     0.121000
s     0.271075     0.391930     0.121000
s     0.282064     0.205116     0.121000
s     0.293053     0.018303     0.121000
s     0.304042     0.831490     0.121000
s     0.315031     0.644677     0.121000
s     0.326020     0.457864     0.121000
s     0.337009     0.271051     0.121000
s     0.347998     0.084237     0.121000
s     0.358987     0.897424     0.121000
s     0.369976     0.710611     0.121000
s     0.380965     0.523798     0.121000
s     0.391954     0.336985     0.121000
s     0.402943     0.150171     0.121000
s     0.413932     0.963358     0.121000
s     0.424921     0.776545     0.121000
s     0.435910     0.589732     0.121000
s     0.446899     0.402919     0.121000
s     0.457888     0.216105     0.121000
s     0.468877     0.029292     0.121000
s     0.479866     0.842479     0.121000
s     0.490855     0.655666     0.121000
s     0.501844     0.468853     0.121000
s     0.512833     0.282040     0.121000
s     0.523822     0.095226     0.121000
s     0.534811     0.908413     0.121000
s     0.545800     0.721600     0.121000
s     0.556789     0.534787     0.121000
s     0.567778     0.347974     0.121000
s     0.578767     0.161160     0.121000
s     0.589756     0.974347     0.121000
s     0.600745     0.787534     0.121000
s     0.611734     0.600721     0.121000
s     0.622723     0.413908     0.121000
s     0.633712     0.227095     0.121000
s     0.644701     0.040281     0.121000
s     0.655690     0.853468     0.121000
s     0.666679     0.666655     0.121000
s     0.677668     0.479842     0.121000
s     0.688657     0.293029     0.121000
s     0.699646     0.106215     0.121000
s     0.710635     0.919402     0.121000
s     0.721624     0.732589     0.121000
s     0.732613     0.545776     0.121000
s     0.743602     0.358963     0.121000
s     0.754591     0.172149     0.121000
s     0.765580     0.985336     0.121000
s     0.776569     0.798523     0.121000
s     0.787558     0.611710     0.121000
s     0.798547     0.424897     0.121000
s     0.809536     0.238084     0.121000
s     0.820525     0.051270     0.121000
s     0.831514     0.864457     0.121000
s     0.842503     0.677644     0.121000
s     0.853492     0.490831     0.121000
s     0.864481     0.304018     0.121000
s     0.875470     0.117204     0.121000
s     0.886459     0.930391     0.121000
s     0.897448     0.743578     0.121000
s     0.908437     0.556765     0.121000
s     0.919426     0.369952     0.121000
s     0.930415     0.183138     0.121000
s     0.941404     0.996325     0.121000
s     0.952393     0.809512     0.121000
s     0.963382     0.622699     0.121000
s     0.974371     0.435886     0.121000
s     0.985360     0.249073     0.121000
s     0.996349     0.062259     0.121000
mo     0.000000     0.000000     0.250000
mo     0.010989     0.813187     0.250000
mo     0.021978     0.626374     0.250000
mo     0.032967     0.439560     0.250000
mo     0.043956     0.252747     0.250000
mo     0.054945     0.065934     0.250000
mo     0.065934     0.879121     0.250000
mo     0.076923     0.692308     0.250000
mo     0.087912     0.505495     0.250000
mo     0.098901     0.318681     0.250000
mo     0.109890     0.131868     0.250000
mo     0.120879     0.945055     0.250000
mo     0.131868     0.758242     0.250000
mo     0.142857     0.571429     0.250000
mo     0.153846     0.384615     0.250000
mo     0.164835     0.197802     0.250000
mo     0.175824     0.010989     0.250000
mo     0.186813     0.824176     0.250000
mo     0.197802     0.637363     0.250000
mo     0.208791     0.450549     0.250000
mo     0.219780     0.263736     0.250000
mo     0.230769     0.076923     0.250000
mo     0.241758     0.890110     0.250000
mo     0.252747     0.703297     0.250000
mo     0.263736     0.516484     0.250000
mo     0.274725     0.329670     0.250000
mo     0.285714     0.142857     0.250000
mo     0.296703     0.956044     0.250000
mo     0.307692     0.769231     0.250000
mo     0.318681     0.582418     0.250000
mo     0.329670     0.395604     0.250000
mo     0.340659     0.208791     0.250000
mo     0.351648     0.021978     0.250000
mo     0.362637     0.835165     0.250000
mo     0.373626     0.648352     0.250000
mo     0.384615     0.461538     0.250000
mo     0.395604     0.274725     0.250000
mo     0.406593     0.087912     0.250000
mo     0.417582     0.901099     0.250000
mo     0.428571     0.714286     0.250000
mo     0.439560     0.527473     0.250000
mo     0.450549     0.340659     0.250000
mo     0.461538     0.153846     0.250000
mo     0.472527     0.967033     0.250000
mo     0.483516     0.780220     0.250000
mo     0.494505     0.593407     0.250000
mo     0.505495     0.406593     0.250000
mo     0.516484     0.219780     0.250000
mo     0.527473     0.032967     0.250000
mo     0.538462     0.846154     0.250000
mo     0.549451     0.659341     0.250000
mo     0.560440     0.472527     0.250000
mo     0.571429     0.285714     0.250000
mo     0.582418     0.098901     0.250000
mo     0.593407     0.912088     0.250000
mo     0.604396     0.725275     0.250000
mo     0.615385     0.538462     0.250000
mo     0.626374     0.351648     0.250000
mo     0.637363     0.164835     0.250000
mo     0.648352     0.978022     0.250000
mo     0.659341     0.791209     0.250000
mo     0.670330     0.604396     0.250000
mo     0.681319     0.417582     0.250000
mo     0.692308     0.230769     0.250000
mo     0.703297     0.043956     0.250000
mo     0.714286     0.857143     0.250000
mo     0.725275     0.670330     0.250000
mo     0.736264     0.483516     0.250000
mo     0.747253     0.296703     0.250000
mo     0.758242     0.109890     0.250000
mo     0.769231     0.923077     0.250000
mo     0.780220     0.736264     0.250000
mo     0.791209     0.549451     0.250000
mo     0.802198     0.362637     0.250000
mo     0.813187     0.175824     0.250000
mo     0.824176     0.989011     0.250000
mo     0.835165     0.802198     0.250000
mo     0.846154     0.615385     0.250000
mo     0.857143     0.428571     0.250000
mo     0.868132     0.241758     0.250000
mo     0.879121     0.054945     0.250000
mo     0.890110     0.868132     0.250000
mo     0.901099     0.681319     0.250000
mo     0.912088     0.494505     0.250000
mo     0.923077     0.307692     0.250000
mo     0.934066     0.120879     0.250000
mo     0.945055     0.934066     0.250000
mo     0.956044     0.747253     0.250000
mo     0.967033     0.560440     0.250000
mo     0.978022     0.373626     0.250000
mo     0.989011     0.186813     0.250000
s     0.007338     0.875446     0.379000
s     0.018327     0.688633     0.379000
s     0.029316     0.501820     0.379000
s     0.040305     0.315007     0.379000
s     0.051295     0.128193     0.379000
s     0.062284     0.941380     0.379000
s     0.073273     0.754567     0.379000
s     0.084262     0.567754     0.379000
s     0.095251     0.380941     0.379000
s     0.106240     0.194127     0.379000
s     0.117229     0.007314     0.379000
s     0.128218     0.820501     0.379000
s     0.139207     0.633688     0.379000
s     0.150196     0.446875     0.379000
s     0.161185     0.260062     0.379000
s     0.172174     0.073248     0.379000
s     0.183163     0.886435     0.379000
s     0.194152     0.699622     0.379000
s     0.205141     0.512809     0.379000
s     0.216130     0.325996     0.379000
s     0.227119     0.139182     0.379000
s     0.238108     0.952369     0.379000
s     0.249097     0.765556     0.379000
s     0.260086     0.578743     0.379000
s     0.271075     0.391930     0.379000
s     0.282064     0.205116     0.379000
s     0.293053     0.018303     0.379000
s     0.304042     0.831490     0.379000
s     0.315031     0.644677     0.379000
s     0.326020     0.457864     0.379000
s     0.337009     0.271051     0.379000
s     0.347998     0.084237     0.379000
s     0.358987     0.897424     0.379000
s     0.369976     0.710611     0.379000
s     0.380965     0.523798     0.379000
s     0.391954     0.336985     0.379000
s     0.402943     0.150171     0.379000
s     0.413932     0.963358     0.379000
s     0.424921     0.776545     0.379000
s     0.435910     0.589732     0.379000
s     0.446899     0.402919     0.379000
s     0.457888     0.216105     0.379000
s     0.468877     0.029292     0.379000
s     0.479866     0.842479     0.379000
s     0.490855     0.655666     0.379000
s     0.501844     0.468853     0.379000
s     0.512833     0.282040     0.379000
s     0.523822     0.095226     0.379000
s     0.534811     0.908413     0.379000
s     0.545800     0.721600     0.379000
s     0.556789     0.534787     0.379000
s     0.567778     0.347974     0.379000
s     0.578767     0.161160     0.379000
s     0.589756     0.974347     0.379000
s     0.600745     0.787534     0.379000
s     0.611734     0.600721     0.379000
s     0.622723     0.413908     0.379000
s     0.633712     0.227095     0.379000
s     0.644701     0.040281     0.379000
s     0.655690     0.853468     0.379000
s     0.666679     0.666655     0.379000
s     0.677668     0.479842     0.379000
s     0.688657     0.293029     0.379000
s     0.699646     0.106215     0.379000
s     0.710635     0.919402     0.379000
s     0.721624     0.732589     0.379000
s     0.732613     0.545776     0.379000
s     0.743602     0.358963     0.379000
s     0.754591     0.172149     0.379000
s     0.765580     0.985336     0.379000
s     0.776569     0.798523     0.379000
s     0.787558     0.611710     0.379000
s     0.798547     0.424897     0.379000
s     0.809536     0.238084     0.379000
s     0.820525     0.051270     0.379000
s     0.831514     0.864457     0.379000
s     0.842503     0.677644     0.379000
s     0.853492     0.490831     0.379000
s     0.864481     0.304018     0.379000
s     0.875470     0.117204     0.379000
s     0.886459     0.930391     0.379000
s     0.897448     0.743578     0.379000
s     0.908437     0.556765     0.379000
s     0.919426     0.369952     0.379000
s     0.930415     0.183138     0.379000
s     0.941404     0.996325     0.379000
s     0.952393     0.809512     0.379000
s     0.963382     0.622699     0.379000
s     0.974371     0.435886     0.379000
s     0.985360     0.249073     0.379000
s     0.996349     0.062259     0.379000
s     0.007317     0.117227     0.621000
s     0.018309     0.293049     0.621000
s     0.029302     0.468872     0.621000
s     0.040274     0.644704     0.621000
s     0.051267     0.820526     0.621000
s     0.062260     0.996348     0.621000
s     0.073253     0.172170     0.621000
s     0.084245     0.347993     0.621000
s     0.095218     0.523825     0.621000
s     0.106210     0.699647     0.621000
s     0.117203     0.875469     0.621000
s     0.128196     0.051291     0.621000
s     0.139188     0.227114     0.621000
s     0.150181     0.402936     0.621000
s     0.161153     0.578768     0.621000
s     0.172146     0.754590     0.621000
s     0.183139     0.930412     0.621000
s     0.194132     0.106234     0.621000
s     0.205124     0.282057     0.621000
s     0.216117     0.457879     0.621000
s     0.227089     0.633711     0.621000
s     0.238082     0.809533     0.621000
s     0.249075     0.985355     0.621000
s     0.260068     0.161178     0.621000
s     0.271060     0.337000     0.621000
s     0.282032     0.512832     0.621000
s     0.293025     0.688654     0.621000
s     0.304018     0.864476     0.621000
s     0.315011     0.040299     0.621000
s     0.326003     0.216121     0.621000
s     0.336996     0.391943     0.621000
s     0.347968     0.567775     0.621000
s     0.358961     0.743597     0.621000
s     0.369954     0.919420     0.621000
s     0.380947     0.095242     0.621000
s     0.391939     0.271064     0.621000
s     0.402932     0.446886     0.621000
s     0.413904     0.622718     0.621000
s     0.424897     0.798541     0.621000
s     0.435890     0.974363     0.621000
s     0.446882     0.150185     0.621000
s     0.457875     0.326007     0.621000
s     0.468868     0.501829     0.621000
s     0.479840     0.677662     0.621000
s     0.490833     0.853484     0.621000
s     0.501826     0.029306     0.621000
s     0.512808     0.205149     0.621000
s     0.523801     0.380971     0.621000
s     0.534773     0.556803     0.621000
s     0.545766     0.732625     0.621000
s     0.556758     0.908447     0.621000
s     0.567751     0.084270     0.621000
s     0.578744     0.260092     0.621000
s     0.589737     0.435914     0.621000
s     0.600709     0.611746     0.621000
s     0.611702     0.787568     0.621000
s     0.622694     0.963391     0.621000
s     0.633687     0.139213     0.621000
s     0.644680     0.315035     0.621000
s     0.655672     0.490857     0.621000
s     0.666645     0.666689     0.621000
s     0.677637     0.842512     0.621000
s     0.688630     0.018334     0.621000
s     0.699623     0.194156     0.621000
s     0.710616     0.369978     0.621000
s     0.721588     0.545810     0.621000
s     0.732581     0.721633     0.621000
s     0.743573     0.897455     0.621000
s     0.754566     0.073277     0.621000
s     0.765559     0.249099     0.621000
s     0.776551     0.424921     0.621000
s     0.787524     0.600753     0.621000
s     0.798516     0.776576     0.621000
s     0.809509     0.952398     0.621000
s     0.820502     0.128220     0.621000
s     0.831495     0.304042     0.621000
s     0.842487     0.479864     0.621000
s     0.853460     0.655697     0.621000
s     0.864452     0.831519     0.621000
s     0.875445     0.007341     0.621000
s     0.886438     0.183163     0.621000
s     0.897430     0.358985     0.621000
s     0.908403     0.534818     0.621000
s     0.919395     0.710640     0.621000
s     0.930388     0.886462     0.621000
s     0.941381     0.062284     0.621000
s     0.952374     0.238106     0.621000
s     0.963366     0.413928     0.621000
s     0.974339     0.589761     0.621000
s     0.985331     0.765583     0.621000
s     0.996324     0.941405     0.621000
mo     0.000000     0.000000     0.750000
mo     0.010993     0.175822     0.750000
mo     0.021985     0.351644     0.750000
mo     0.032958     0.527477     0.750000
mo     0.043950     0.703299     0.750000
mo     0.054943     0.879121     0.750000
mo     0.065936     0.054943     0.750000
mo     0.076929     0.230765     0.750000
mo     0.087921     0.406587     0.750000
mo     0.098894     0.582420     0.750000
mo     0.109886     0.758242     0.750000
mo     0.120879     0.934064     0.750000
mo     0.131872     0.109886     0.750000
mo     0.142864     0.285708     0.750000
mo     0.153857     0.461531     0.750000
mo     0.164829     0.637363     0.750000
mo     0.175822     0.813185     0.750000
mo     0.186815     0.989007     0.750000
mo     0.197808     0.164829     0.750000
mo     0.208800     0.340652     0.750000
mo     0.219773     0.516484     0.750000
mo     0.230765     0.692306     0.750000
mo     0.241758     0.868128     0.750000
mo     0.252751     0.043950     0.750000
mo     0.263743     0.219773     0.750000
mo     0.274736     0.395595     0.750000
mo     0.285708     0.571427     0.750000
mo     0.296701     0.747249     0.750000
mo     0.307694     0.923071     0.750000
mo     0.318687     0.098894     0.750000
mo     0.329679     0.274716     0.750000
mo     0.340672     0.450538     0.750000
mo     0.351644     0.626370     0.750000
mo     0.362637     0.802192     0.750000
mo     0.373630     0.978015     0.750000
mo     0.384622     0.153837     0.750000
mo     0.395615     0.329659     0.750000
mo     0.406608     0.505481     0.750000
mo     0.417580     0.681313     0.750000
mo     0.428573     0.857136     0.750000
mo     0.439566     0.032958     0.750000
mo     0.450558     0.208780     0.750000
mo     0.461551     0.384602     0.750000
mo     0.472523     0.560434     0.750000
mo     0.483516     0.736257     0.750000
mo     0.494509     0.912079     0.750000
mo     0.505501     0.087901     0.750000
mo     0.516484     0.263743     0.750000
mo     0.527477     0.439566     0.750000
mo     0.538449     0.615398     0.750000
mo     0.549442     0.791220     0.750000
mo     0.560434     0.967042     0.750000
mo     0.571427     0.142864     0.750000
mo     0.582420     0.318687     0.750000
mo     0.593413     0.494509     0.750000
mo     0.604385     0.670341     0.750000
mo     0.615378     0.846163     0.750000
mo     0.626370     0.021985     0.750000
mo     0.637363     0.197808     0.750000
mo     0.648356     0.373630     0.750000
mo     0.659328     0.549462     0.750000
mo     0.670321     0.725284     0.750000
mo     0.681313     0.901106     0.750000
mo     0.692306     0.076929     0.750000
mo     0.703299     0.252751     0.750000
mo     0.714292     0.428573     0.750000
mo     0.725264     0.604405     0.750000
mo     0.736257     0.780227     0.750000
mo     0.747249     0.956050     0.750000
mo     0.758242     0.131872     0.750000
mo     0.769235     0.307694     0.750000
mo     0.780227     0.483516     0.750000
mo     0.791200     0.659348     0.750000
mo     0.802192     0.835171     0.750000
mo     0.813185     0.010993     0.750000
mo     0.824178     0.186815     0.750000
mo     0.835171     0.362637     0.750000
mo     0.846143     0.538469     0.750000
mo     0.857136     0.714292     0.750000
mo     0.868128     0.890114     0.750000
mo     0.879121     0.065936     0.750000
mo     0.890114     0.241758     0.750000
mo     0.901106     0.417580     0.750000
mo     0.912079     0.593413     0.750000
mo     0.923071     0.769235     0.750000
mo     0.934064     0.945057     0.750000
mo     0.945057     0.120879     0.750000
mo     0.956050     0.296701     0.750000
mo     0.967042     0.472523     0.750000
mo     0.978015     0.648356     0.750000
mo     0.989007     0.824178     0.750000
s     0.007317     0.117227     0.879000
s     0.018309     0.293049     0.879000
s     0.029302     0.468872     0.879000
s     0.040274     0.644704     0.879000
s     0.051267     0.820526     0.879000
s     0.062260     0.996348     0.879000
s     0.073253     0.172170     0.879000
s     0.084245     0.347993     0.879000
s     0.095218     0.523825     0.879000
s     0.106210     0.699647     0.879000
s     0.117203     0.875469     0.879000
s     0.128196     0.051291     0.879000
s     0.139188     0.227114     0.879000
s     0.150181     0.402936     0.879000
s     0.161153     0.578768     0.879000
s     0.172146     0.754590     0.879000
s     0.183139     0.930412     0.879000
s     0.194132     0.106234     0.879000
s     0.205124     0.282057     0.879000
s     0.216117     0.457879     0.879000
s     0.227089     0.633711     0.879000
s     0.238082     0.809533     0.879000
s     0.249075     0.985355     0.879000
s     0.260068     0.161178     0.879000
s     0.271060     0.337000     0.879000
s     0.282032     0.512832     0.879000
s     0.293025     0.688654     0.879000
s     0.304018     0.864476     0.879000
s     0.315011     0.040299     0.879000
s     0.326003     0.216121     0.879000
s     0.336996     0.391943     0.879000
s     0.347968     0.567775     0.879000
s     0.358961     0.743597     0.879000
s     0.369954     0.919420     0.879000
s     0.380947     0.095242     0.879000
s     0.391939     0.271064     0.879000
s     0.402932     0.446886     0.879000
s     0.413904     0.622718     0.879000
s     0.424897     0.798541     0.879000
s     0.435890     0.974363     0.879000
s     0.446882     0.150185     0.879000
s     0.457875     0.326007     0.879000
s     0.468868     0.501829     0.879000
s     0.479840     0.677662     0.879000
s     0.490833     0.853484     0.879000
s     0.501826     0.029306     0.879000
s     0.512808     0.205149     0.879000
s     0.523801     0.380971     0.879000
s     0.534773     0.556803     0.879000
s     0.545766     0.732625     0.879000
s     0.556758     0.908447     0.879000
s     0.567751     0.084270     0.879000
s     0.578744     0.260092     0.879000
s     0.589737     0.435914     0.879000
s     0.600709     0.611746     0.879000
s     0.611702     0.787568     0.879000
s     0.622694     0.963391     0.879000
s     0.633687     0.139213     0.879000
s     0.644680     0.315035     0.879000
s     0.655672     0.490857     0.879000
s     0.666645     0.666689     0.879000
s     0.677637     0.842512     0.879000
s     0.688630     0.018334     0.879000
s     0.699623     0.194156     0.879000
s     0.710616     0.369978     0.879000
s     0.721588     0.545810     0.879000
s     0.732581     0.721633     0.879000
s     0.743573     0.897455     0.879000
s     0.754566     0.073277     0.879000
s     0.765559     0.249099     0.879000
s     0.776551     0.424921     0.879000
s     0.787524     0.600753     0.879000
s     0.798516     0.776576     0.879000
s     0.809509     0.952398     0.879000
s     0.820502     0.128220     0.879000
s     0.831495     0.304042     0.879000
s     0.842487     0.479864     0.879000
s     0.853460     0.655697     0.879000
s     0.864452     0.831519     0.879000
s     0.875445     0.007341     0.879000
s     0.886438     0.183163     0.879000
s     0.897430     0.358985     0.879000
s     0.908403     0.534818     0.879000
s     0.919395     0.710640     0.879000
s     0.930388     0.886462     0.879000
s     0.941381     0.062284     0.879000
s     0.952374     0.238106     0.879000
s     0.963366     0.413928     0.879000
s     0.974339     0.589761     0.879000
s     0.985331     0.765583     0.879000
s     0.996324     0.941405     0.879000

K_POINTS automatic
8 8 1 1 1 1

CELL_PARAMETERS bohr
     56.706482        -2.976318  0.000000
     30.930808        47.621095  0.000000
     0.000000         0.000000   23.243630
