&control
    calculation = "scf"
    prefix = "qe_structure"
    pseudo_dir = "./pseudopotentials/"
    outdir = "./output/"
/

&system
    ibrav = 0
    nat = 36
    ntyp = 2
    ecutwfc = 50
    ecutrho = 200
/

&electrons
    diagonalization = "david"
    conv_thr = 1.0d-8
    mixing_beta = 0.7
/

&ions
/

&cell
/

ATOMIC_SPECIES
Si   28.085   si.UPF
C   12.011   c.UPF

ATOMIC_POSITIONS crystal
C      0.666667      0.333333      0.315860
C      0.333333      0.666667      0.315860
C      0.000000      0.000000      0.315860
Si      0.333333      0.666667      0.274535
Si      0.000000      0.000000      0.274535
Si       0.666667      0.333333      0.274535
C      0.333333      0.000000      0.260895
C      0.000000      0.333333      0.260895
C      0.666667      0.666667      0.260895
Si      0.000000      0.333333      0.219694
Si      0.666667      0.666667      0.219694
Si       0.333333      0.000000      0.219694
C      0.666667      1.000000      0.206015
C      0.333333      0.333333      0.206015
C      1.000000      0.666667      0.206015
Si       0.333333      0.333333      0.164818
Si       0.666667      1.000000      0.164818
Si       1.000000      0.666667      0.164818
C      0.666667      0.333333      0.151042
C      0.333333      0.666667      0.151042
C      0.000000      0.000000      0.151042
Si      0.333333      0.666667      0.109718
Si      0.000000      0.000000      0.109718
Si       0.666667      0.333333      0.109718
C      0.333333      0.333333      0.096077
C      0.666667      1.000000      0.096077
C      1.000000      0.666667      0.096077
Si      0.333333      0.333333      0.054876
Si      1.000000      0.666667      0.054876
Si       0.666667      1.000000      0.054876
C      0.333333      0.000000      0.041198
C      0.000000      0.333333      0.041198
C      0.666667      0.666667      0.041198
Si       0.333333      0.000000      0.000000
Si       0.666667      0.666667      0.000000
Si       0.000000      0.333333      0.000000

K_POINTS automatic
2 2 2 0 0 0

CELL_PARAMETERS angstrom
      2.664432      4.614932      0.000000
     -5.328864      0.000000      0.000000
      0.000000      0.000000     45.802315
