&control
    calculation = "scf"
    prefix = "qe_structure"
    pseudo_dir = "./pseudopotentials/"
    outdir = "./output/"
/

&system
    ibrav = 0
    nat = 4
    ntyp = 1
    ecutwfc = 50
    ecutrho = 200
/

&electrons
    diagonalization = "david"
    conv_thr = 1.0d-8
    mixing_beta = 0.7
/

&ions
/

&cell
/

ATOMIC_SPECIES
C   12.011   c.UPF

ATOMIC_POSITIONS crystal
C       0.666670      0.333340      0.516707
C       0.000000      0.000000      0.516707
C       0.333330      0.666670      0.433373
C       0.000000      0.000000      0.433373

K_POINTS automatic
2 2 2 0 0 0

CELL_PARAMETERS angstrom
      2.139083     -1.235000      0.000000
      0.000000      2.470000      0.000000
      0.000000      0.000000     40.740000
