&control
    calculation = "scf"
    prefix = "qe_structure"
    pseudo_dir = "./pseudopotentials/"
    outdir = "./output/"
/

&system
    ibrav = 0
    nat = 36
    ntyp = 1
    ecutwfc = 50
    ecutrho = 200
/

&electrons
    diagonalization = "david"
    conv_thr = 1.0d-8
    mixing_beta = 0.7
/

&ions
/

&cell
/

ATOMIC_SPECIES
C   12.011   c.UPF

ATOMIC_POSITIONS crystal
C       0.888890      0.777780      0.516707
C       0.555557      0.444447      0.516707
C       0.000000      0.000000      0.516707
C       0.000000      0.333333      0.516707
C       0.000000      0.666667      0.516707
C       0.222223      0.111113      0.516707
C       0.222223      0.444447      0.516707
C       0.222223      0.777780      0.516707
C       0.333333      0.000000      0.516707
C       0.333333      0.333333      0.516707
C       0.888890      0.444447      0.516707
C       0.555557      0.111113      0.516707
C       0.333333      0.666667      0.516707
C       0.555557      0.777780      0.516707
C       0.888890      0.111113      0.516707
C       0.666667      0.000000      0.516707
C       0.666667      0.333333      0.516707
C       0.666667      0.666667      0.516707
C       0.777777      0.222223      0.433373
C       0.000000      0.333333      0.433373
C       0.777777      0.888890      0.433373
C       0.000000      0.666667      0.433373
C       0.777777      0.555557      0.433373
C       0.111110      0.222223      0.433373
C       0.111110      0.555557      0.433373
C       0.111110      0.888890      0.433373
C       0.666667      0.666667      0.433373
C       0.666667      0.000000      0.433373
C       0.333333      0.000000      0.433373
C       0.333333      0.333333      0.433373
C       0.666667      0.333333      0.433373
C       0.333333      0.666667      0.433373
C       0.444443      0.222223      0.433373
C       0.444443      0.555557      0.433373
C       0.444443      0.888890      0.433373
C       0.000000      0.000000      0.433373

K_POINTS automatic
2 2 2 0 0 0

CELL_PARAMETERS angstrom
      6.417248     -3.705000      0.000000
      0.000000      7.410000      0.000000
      0.000000      0.000000     40.740000
