&control
    calculation = "scf"
    prefix = "qe_structure"
    pseudo_dir = "./pseudopotentials/"
    outdir = "./output/"
/

&system
    ibrav = 0
    nat = 64
    ntyp = 1
    ecutwfc = 50
    ecutrho = 200
/

&electrons
    diagonalization = "david"
    conv_thr = 1.0d-8
    mixing_beta = 0.7
/

&ions
/

&cell
/

ATOMIC_SPECIES
C   12.011   c.UPF

ATOMIC_POSITIONS crystal
C       0.916668      0.833335      0.516707
C       0.250000      0.250000      0.516707
C       0.500000      0.250000      0.516707
C       0.500000      0.000000      0.516707
C       0.916668      0.583335      0.516707
C       0.416667      0.583335      0.516707
C       0.416667      0.333335      0.516707
C       0.416667      0.083335      0.516707
C       0.250000      0.750000      0.516707
C       0.250000      0.500000      0.516707
C       0.250000      0.000000      0.516707
C       0.500000      0.750000      0.516707
C       0.166667      0.833335      0.516707
C       0.166667      0.583335      0.516707
C       0.166667      0.333335      0.516707
C       0.166667      0.083335      0.516707
C       0.000000      0.750000      0.516707
C       0.000000      0.500000      0.516707
C       0.000000      0.250000      0.516707
C       0.000000      0.000000      0.516707
C       0.500000      0.500000      0.516707
C       0.416667      0.833335      0.516707
C       0.916668      0.333335      0.516707
C       0.916668      0.083335      0.516707
C       0.750000      0.750000      0.516707
C       0.666667      0.083335      0.516707
C       0.750000      0.250000      0.516707
C       0.666667      0.333335      0.516707
C       0.666667      0.583335      0.516707
C       0.666667      0.833335      0.516707
C       0.750000      0.500000      0.516707
C       0.750000      0.000000      0.516707
C       0.583333      0.416668      0.433373
C       0.083333      0.666668      0.433373
C       0.750000      0.750000      0.433373
C       0.833333      0.166668      0.433373
C       0.833333      0.416668      0.433373
C       0.083333      0.916667      0.433373
C       0.833333      0.666668      0.433373
C       0.083333      0.416668      0.433373
C       0.083333      0.166667      0.433373
C       0.000000      0.750000      0.433373
C       0.833333      0.916667      0.433373
C       0.000000      0.500000      0.433373
C       0.000000      0.250000      0.433373
C       0.250000      0.000000      0.433373
C       0.250000      0.500000      0.433373
C       0.250000      0.250000      0.433373
C       0.750000      0.000000      0.433373
C       0.583333      0.666668      0.433373
C       0.500000      0.750000      0.433373
C       0.583333      0.916667      0.433373
C       0.500000      0.500000      0.433373
C       0.500000      0.250000      0.433373
C       0.500000      0.000000      0.433373
C       0.333332      0.916667      0.433373
C       0.750000      0.500000      0.433373
C       0.333332      0.666668      0.433373
C       0.333332      0.416668      0.433373
C       0.333332      0.166667      0.433373
C       0.750000      0.250000      0.433373
C       0.250000      0.750000      0.433373
C       0.583333      0.166668      0.433373
C       0.000000      0.000000      0.433373

K_POINTS automatic
2 2 2 0 0 0

CELL_PARAMETERS angstrom
      8.556331     -4.940000      0.000000
      0.000000      9.880000      0.000000
      0.000000      0.000000     40.740000
