&control
    calculation = "scf"
    prefix = "qe_structure"
    pseudo_dir = "./pseudopotentials/"
    outdir = "./output/"
/

&system
    ibrav = 0
    nat = 100
    ntyp = 1
    ecutwfc = 50
    ecutrho = 200
/

&electrons
    diagonalization = "david"
    conv_thr = 1.0d-8
    mixing_beta = 0.7
/

&ions
/

&cell
/

ATOMIC_SPECIES
C   12.011   c.UPF

ATOMIC_POSITIONS crystal
C       0.933334      0.866668      0.516707
C       0.400000      0.600000      0.516707
C       0.333334      0.466668      0.516707
C       0.333334      0.666668      0.516707
C       0.333334      0.866668      0.516707
C       0.400000      0.000000      0.516707
C       0.400000      0.200000      0.516707
C       0.400000      0.400000      0.516707
C       0.933334      0.666668      0.516707
C       0.333334      0.066668      0.516707
C       0.533334      0.066668      0.516707
C       0.533334      0.266668      0.516707
C       0.533334      0.466668      0.516707
C       0.533334      0.666668      0.516707
C       0.533334      0.866668      0.516707
C       0.333334      0.266668      0.516707
C       0.200000      1.000000      0.516707
C       0.600000      0.200000      0.516707
C       0.133334      0.066668      0.516707
C       0.000000      0.000000      0.516707
C       0.000000      0.200000      0.516707
C       0.000000      0.400000      0.516707
C       0.000000      0.600000      0.516707
C       0.000000      0.800000      0.516707
C       0.133334      0.266668      0.516707
C       0.200000      0.800000      0.516707
C       0.133334      0.466668      0.516707
C       0.133334      0.666668      0.516707
C       0.133334      0.866668      0.516707
C       0.200000      0.200000      0.516707
C       0.200000      0.400000      0.516707
C       0.200000      0.600000      0.516707
C       0.600000      0.000000      0.516707
C       0.400000      0.800000      0.516707
C       0.733334      0.066668      0.516707
C       0.933334      0.066668      0.516707
C       0.800000      0.800000      0.516707
C       0.800000      0.200000      0.516707
C       0.733334      0.466668      0.516707
C       0.800000      0.400000      0.516707
C       0.800000      1.000000      0.516707
C       0.800000      0.600000      0.516707
C       0.733334      0.866668      0.516707
C       0.733334      0.666668      0.516707
C       0.600000      0.800000      0.516707
C       0.933334      0.266668      0.516707
C       0.600000      0.600000      0.516707
C       0.733334      0.266668      0.516707
C       0.933334      0.466668      0.516707
C       0.600000      0.400000      0.516707
C       0.800000      1.000000      0.433373
C       0.600000      0.400000      0.433373
C       0.200000      0.200000      0.433373
C       0.800000      0.800000      0.433373
C       0.200000      0.600000      0.433373
C       0.800000      0.600000      0.433373
C       0.200000      0.400000      0.433373
C       0.066666      0.933334      0.433373
C       0.866666      0.133334      0.433373
C       0.866666      0.333334      0.433373
C       0.066666      0.733334      0.433373
C       0.066666      0.533334      0.433373
C       0.066666      0.333334      0.433373
C       0.066666      0.133334      0.433373
C       0.866666      0.533334      0.433373
C       0.866666      0.733334      0.433373
C       0.000000      0.800000      0.433373
C       0.866666      0.933334      0.433373
C       0.000000      0.600000      0.433373
C       0.000000      0.400000      0.433373
C       0.000000      0.200000      0.433373
C       0.200000      0.800000      0.433373
C       0.266666      0.333334      0.433373
C       0.200000      1.000000      0.433373
C       0.800000      0.400000      0.433373
C       0.600000      0.000000      0.433373
C       0.600000      0.600000      0.433373
C       0.600000      0.800000      0.433373
C       0.666666      0.133334      0.433373
C       0.466666      0.933334      0.433373
C       0.466666      0.733334      0.433373
C       0.466666      0.533334      0.433373
C       0.466666      0.333334      0.433373
C       0.466666      0.133334      0.433373
C       0.666666      0.333334      0.433373
C       0.400000      1.000000      0.433373
C       0.666666      0.533334      0.433373
C       0.400000      0.800000      0.433373
C       0.666666      0.733334      0.433373
C       0.400000      0.600000      0.433373
C       0.666666      0.933334      0.433373
C       0.400000      0.400000      0.433373
C       0.400000      0.200000      0.433373
C       0.800000      0.200000      0.433373
C       0.266666      0.933334      0.433373
C       0.266666      0.733334      0.433373
C       0.266666      0.533334      0.433373
C       0.600000      0.200000      0.433373
C       0.266666      0.133334      0.433373
C       0.000000      0.000000      0.433373

K_POINTS automatic
2 2 2 0 0 0

CELL_PARAMETERS angstrom
     10.695414     -6.175000      0.000000
      0.000000     12.350000      0.000000
      0.000000      0.000000     40.740000
