&control
 title='crystal',
 prefix='crystal',
 pseudo_dir='.',
 calculation='relax',
 etot_conv_thr=1.0D-5,
 forc_conv_thr=1.0D-4,
/
&system
 ibrav=0,
 nat= 124,
 ntyp= 1,
 ecutwfc=80.0,
 ecutrho=800.0,
 xdm=.true.,
 xdm_a1=0.6512,
 xdm_a2=1.4633,
/
&electrons
 conv_thr = 1d-8
/
&ions
/
&cell
/
ATOMIC_SPECIES
c     12.011 c.UPF

ATOMIC_POSITIONS crystal
c     0.010754     0.720429     0.000000
c     0.043012     0.881720     0.000000
c     0.075270     0.043010     0.000000
c     0.107528     0.204300     0.000000
c     0.139786     0.365591     0.000000
c     0.172044     0.526881     0.000000
c     0.204302     0.688171     0.000000
c     0.236560     0.849462     0.000000
c     0.268818     0.010752     0.000000
c     0.301076     0.172042     0.000000
c     0.333335     0.333333     0.000000
c     0.365593     0.494623     0.000000
c     0.397851     0.655913     0.000000
c     0.430109     0.817204     0.000000
c     0.462367     0.978494     0.000000
c     0.494625     0.139784     0.000000
c     0.526883     0.301075     0.000000
c     0.559141     0.462365     0.000000
c     0.591399     0.623655     0.000000
c     0.623657     0.784945     0.000000
c     0.655915     0.946236     0.000000
c     0.688173     0.107526     0.000000
c     0.720431     0.268816     0.000000
c     0.752689     0.430107     0.000000
c     0.784947     0.591397     0.000000
c     0.817205     0.752687     0.000000
c     0.849464     0.913978     0.000000
c     0.881722     0.075268     0.000000
c     0.913980     0.236558     0.000000
c     0.946238     0.397849     0.000000
c     0.978496     0.559139     0.000000
c     0.000000     0.000000     0.005000
c     0.032258     0.161290     0.005000
c     0.064516     0.322581     0.005000
c     0.096774     0.483871     0.005000
c     0.129032     0.645161     0.005000
c     0.161290     0.806452     0.005000
c     0.193548     0.967742     0.005000
c     0.225806     0.129032     0.005000
c     0.258065     0.290323     0.005000
c     0.290323     0.451613     0.005000
c     0.322581     0.612903     0.005000
c     0.354839     0.774194     0.005000
c     0.387097     0.935484     0.005000
c     0.419355     0.096774     0.005000
c     0.451613     0.258065     0.005000
c     0.483871     0.419355     0.005000
c     0.516129     0.580645     0.005000
c     0.548387     0.741935     0.005000
c     0.580645     0.903226     0.005000
c     0.612903     0.064516     0.005000
c     0.645161     0.225806     0.005000
c     0.677419     0.387097     0.005000
c     0.709677     0.548387     0.005000
c     0.741935     0.709677     0.005000
c     0.774194     0.870968     0.005000
c     0.806452     0.032258     0.005000
c     0.838710     0.193548     0.005000
c     0.870968     0.354839     0.005000
c     0.903226     0.516129     0.005000
c     0.935484     0.677419     0.005000
c     0.967742     0.838710     0.005000
c     0.010733     0.268827     0.500000
c     0.043004     0.075274     0.500000
c     0.075274     0.881721     0.500000
c     0.107544     0.688168     0.500000
c     0.139745     0.494650     0.500000
c     0.172016     0.301097     0.500000
c     0.204286     0.107544     0.500000
c     0.236556     0.913991     0.500000
c     0.268827     0.720438     0.500000
c     0.301028     0.526920     0.500000
c     0.333298     0.333367     0.500000
c     0.365569     0.139814     0.500000
c     0.397839     0.946262     0.500000
c     0.430109     0.752709     0.500000
c     0.462414     0.559086     0.500000
c     0.494615     0.365568     0.500000
c     0.526886     0.172015     0.500000
c     0.559156     0.978462     0.500000
c     0.591427     0.784910     0.500000
c     0.623697     0.591357     0.500000
c     0.655898     0.397839     0.500000
c     0.688168     0.204286     0.500000
c     0.720439     0.010733     0.500000
c     0.752709     0.817180     0.500000
c     0.784979     0.623627     0.500000
c     0.817180     0.430109     0.500000
c     0.849451     0.236556     0.500000
c     0.881721     0.043003     0.500000
c     0.913992     0.849450     0.500000
c     0.946262     0.655898     0.500000
c     0.978463     0.462379     0.500000
c     0.000000     0.000000     0.505000
c     0.032270     0.806447     0.505000
c     0.064541     0.612894     0.505000
c     0.096742     0.419376     0.505000
c     0.129012     0.225823     0.505000
c     0.161282     0.032270     0.505000
c     0.193553     0.838718     0.505000
c     0.225823     0.645165     0.505000
c     0.258024     0.451647     0.505000
c     0.290295     0.258094     0.505000
c     0.322565     0.064541     0.505000
c     0.354835     0.870988     0.505000
c     0.387106     0.677435     0.505000
c     0.419307     0.483917     0.505000
c     0.451612     0.290295     0.505000
c     0.483882     0.096742     0.505000
c     0.516153     0.903189     0.505000
c     0.548423     0.709636     0.505000
c     0.580624     0.516118     0.505000
c     0.612894     0.322565     0.505000
c     0.645165     0.129012     0.505000
c     0.677435     0.935459     0.505000
c     0.709705     0.741906     0.505000
c     0.741976     0.548353     0.505000
c     0.774177     0.354835     0.505000
c     0.806447     0.161282     0.505000
c     0.838718     0.967730     0.505000
c     0.870988     0.774177     0.505000
c     0.903258     0.580624     0.505000
c     0.935459     0.387106     0.505000
c     0.967730     0.193553     0.505000

K_POINTS automatic
8 8 1 1 1 1

CELL_PARAMETERS bohr
     24.253682        -9.335246  0.000000
     20.211401        16.336681  0.000000
     0.000000         0.000000   12.831239
