&control
 title='crystal',
 prefix='crystal',
 pseudo_dir='.',
 calculation='relax',
 etot_conv_thr=1.0D-5,
 forc_conv_thr=1.0D-4,
/
&system
 ibrav=0,
 nat= 148,
 ntyp= 1,
 ecutwfc=80.0,
 ecutrho=800.0,
 xdm=.true.,
 xdm_a1=0.6512,
 xdm_a2=1.4633,
/
&electrons
 conv_thr = 1d-8
/
&ions
/
&cell
/
ATOMIC_SPECIES
c     12.011 c.UPF

ATOMIC_POSITIONS crystal
c     0.009010     0.900900     0.000000
c     0.036037     0.603603     0.000000
c     0.063064     0.306305     0.000000
c     0.090091     0.009008     0.000000
c     0.117118     0.711711     0.000000
c     0.144145     0.414414     0.000000
c     0.171172     0.117116     0.000000
c     0.198199     0.819819     0.000000
c     0.225226     0.522522     0.000000
c     0.252253     0.225224     0.000000
c     0.279280     0.927927     0.000000
c     0.306307     0.630630     0.000000
c     0.333334     0.333332     0.000000
c     0.360361     0.036035     0.000000
c     0.387388     0.738738     0.000000
c     0.414415     0.441441     0.000000
c     0.441442     0.144143     0.000000
c     0.468469     0.846846     0.000000
c     0.495496     0.549549     0.000000
c     0.522524     0.252251     0.000000
c     0.549551     0.954954     0.000000
c     0.576578     0.657657     0.000000
c     0.603605     0.360359     0.000000
c     0.630632     0.063062     0.000000
c     0.657659     0.765765     0.000000
c     0.684686     0.468468     0.000000
c     0.711713     0.171170     0.000000
c     0.738740     0.873873     0.000000
c     0.765767     0.576576     0.000000
c     0.792794     0.279278     0.000000
c     0.819821     0.981981     0.000000
c     0.846848     0.684684     0.000000
c     0.873875     0.387386     0.000000
c     0.900902     0.090089     0.000000
c     0.927929     0.792792     0.000000
c     0.954956     0.495495     0.000000
c     0.981983     0.198197     0.000000
c     0.000000     0.000000     0.005000
c     0.027027     0.702703     0.005000
c     0.054054     0.405405     0.005000
c     0.081081     0.108108     0.005000
c     0.108108     0.810811     0.005000
c     0.135135     0.513514     0.005000
c     0.162162     0.216216     0.005000
c     0.189189     0.918919     0.005000
c     0.216216     0.621622     0.005000
c     0.243243     0.324324     0.005000
c     0.270270     0.027027     0.005000
c     0.297297     0.729730     0.005000
c     0.324324     0.432432     0.005000
c     0.351351     0.135135     0.005000
c     0.378378     0.837838     0.005000
c     0.405405     0.540541     0.005000
c     0.432432     0.243243     0.005000
c     0.459459     0.945946     0.005000
c     0.486486     0.648649     0.005000
c     0.513514     0.351351     0.005000
c     0.540541     0.054054     0.005000
c     0.567568     0.756757     0.005000
c     0.594595     0.459459     0.005000
c     0.621622     0.162162     0.005000
c     0.648649     0.864865     0.005000
c     0.675676     0.567568     0.005000
c     0.702703     0.270270     0.005000
c     0.729730     0.972973     0.005000
c     0.756757     0.675676     0.005000
c     0.783784     0.378378     0.005000
c     0.810811     0.081081     0.005000
c     0.837838     0.783784     0.005000
c     0.864865     0.486486     0.005000
c     0.891892     0.189189     0.005000
c     0.918919     0.891892     0.005000
c     0.945946     0.594595     0.005000
c     0.972973     0.297297     0.005000
c     0.009009     0.090089     0.500000
c     0.036036     0.360359     0.500000
c     0.063063     0.630630     0.500000
c     0.090090     0.900900     0.500000
c     0.117117     0.171170     0.500000
c     0.144144     0.441441     0.500000
c     0.171171     0.711711     0.500000
c     0.198198     0.981981     0.500000
c     0.225225     0.252251     0.500000
c     0.252252     0.522522     0.500000
c     0.279279     0.792792     0.500000
c     0.306306     0.063062     0.500000
c     0.333333     0.333333     0.500000
c     0.360360     0.603603     0.500000
c     0.387387     0.873873     0.500000
c     0.414414     0.144143     0.500000
c     0.441441     0.414414     0.500000
c     0.468468     0.684684     0.500000
c     0.495495     0.954954     0.500000
c     0.522522     0.225224     0.500000
c     0.549550     0.495494     0.500000
c     0.576577     0.765765     0.500000
c     0.603604     0.036035     0.500000
c     0.630631     0.306305     0.500000
c     0.657658     0.576576     0.500000
c     0.684685     0.846846     0.500000
c     0.711712     0.117116     0.500000
c     0.738739     0.387386     0.500000
c     0.765766     0.657657     0.500000
c     0.792793     0.927927     0.500000
c     0.819820     0.198197     0.500000
c     0.846847     0.468468     0.500000
c     0.873874     0.738738     0.500000
c     0.900901     0.009008     0.500000
c     0.927928     0.279278     0.500000
c     0.954955     0.549549     0.500000
c     0.981982     0.819819     0.500000
c     0.000000     0.000000     0.505000
c     0.027027     0.270270     0.505000
c     0.054054     0.540541     0.505000
c     0.081081     0.810811     0.505000
c     0.108108     0.081081     0.505000
c     0.135135     0.351351     0.505000
c     0.162162     0.621622     0.505000
c     0.189189     0.891892     0.505000
c     0.216216     0.162162     0.505000
c     0.243243     0.432433     0.505000
c     0.270270     0.702703     0.505000
c     0.297297     0.972973     0.505000
c     0.324324     0.243243     0.505000
c     0.351351     0.513514     0.505000
c     0.378378     0.783784     0.505000
c     0.405405     0.054054     0.505000
c     0.432432     0.324324     0.505000
c     0.459459     0.594595     0.505000
c     0.486486     0.864865     0.505000
c     0.513514     0.135135     0.505000
c     0.540541     0.405405     0.505000
c     0.567568     0.675676     0.505000
c     0.594595     0.945946     0.505000
c     0.621622     0.216216     0.505000
c     0.648649     0.486486     0.505000
c     0.675676     0.756757     0.505000
c     0.702703     0.027027     0.505000
c     0.729730     0.297297     0.505000
c     0.756757     0.567567     0.505000
c     0.783784     0.837838     0.505000
c     0.810811     0.108108     0.505000
c     0.837838     0.378378     0.505000
c     0.864865     0.648649     0.505000
c     0.891892     0.918919     0.505000
c     0.918919     0.189189     0.505000
c     0.945946     0.459459     0.505000
c     0.972973     0.729730     0.505000

K_POINTS automatic
8 8 1 1 1 1

CELL_PARAMETERS bohr
     28.295962        -2.333812  0.000000
     16.169121        23.338116  0.000000
     0.000000         0.000000   12.831239
