&control
 title='crystal',
 prefix='crystal',
 pseudo_dir='.',
 calculation='relax',
 etot_conv_thr=1.0D-5,
 forc_conv_thr=1.0D-4,
/
&system
 ibrav=0,
 nat= 172,
 ntyp= 1,
 ecutwfc=80.0,
 ecutrho=800.0,
 xdm=.true.,
 xdm_a1=0.6512,
 xdm_a2=1.4633,
/
&electrons
 conv_thr = 1d-8
/
&ions
/
&cell
/
ATOMIC_SPECIES
c     12.011 c.UPF

ATOMIC_POSITIONS crystal
c     0.015505     0.759689     0.000000
c     0.038761     0.899224     0.000000
c     0.062017     0.038759     0.000000
c     0.085272     0.178294     0.000000
c     0.108528     0.317829     0.000000
c     0.131784     0.457364     0.000000
c     0.155040     0.596899     0.000000
c     0.178296     0.736433     0.000000
c     0.201551     0.875968     0.000000
c     0.224807     0.015503     0.000000
c     0.248063     0.155038     0.000000
c     0.271319     0.294573     0.000000
c     0.294575     0.434108     0.000000
c     0.317830     0.573643     0.000000
c     0.341086     0.713178     0.000000
c     0.364342     0.852713     0.000000
c     0.387598     0.992247     0.000000
c     0.410854     0.131782     0.000000
c     0.434110     0.271317     0.000000
c     0.457365     0.410852     0.000000
c     0.480621     0.550387     0.000000
c     0.503877     0.689922     0.000000
c     0.527133     0.829457     0.000000
c     0.550389     0.968992     0.000000
c     0.573644     0.108527     0.000000
c     0.596900     0.248061     0.000000
c     0.620156     0.387596     0.000000
c     0.643412     0.527131     0.000000
c     0.666668     0.666666     0.000000
c     0.689923     0.806201     0.000000
c     0.713179     0.945736     0.000000
c     0.736435     0.085271     0.000000
c     0.759691     0.224806     0.000000
c     0.782947     0.364340     0.000000
c     0.806203     0.503875     0.000000
c     0.829458     0.643410     0.000000
c     0.852714     0.782945     0.000000
c     0.875970     0.922480     0.000000
c     0.899226     0.062015     0.000000
c     0.922482     0.201550     0.000000
c     0.945737     0.341085     0.000000
c     0.968993     0.480620     0.000000
c     0.992249     0.620154     0.000000
c     0.000000     0.000000     0.005000
c     0.023256     0.139535     0.005000
c     0.046512     0.279070     0.005000
c     0.069767     0.418605     0.005000
c     0.093023     0.558140     0.005000
c     0.116279     0.697674     0.005000
c     0.139535     0.837209     0.005000
c     0.162791     0.976744     0.005000
c     0.186047     0.116279     0.005000
c     0.209302     0.255814     0.005000
c     0.232558     0.395349     0.005000
c     0.255814     0.534884     0.005000
c     0.279070     0.674419     0.005000
c     0.302326     0.813953     0.005000
c     0.325581     0.953488     0.005000
c     0.348837     0.093023     0.005000
c     0.372093     0.232558     0.005000
c     0.395349     0.372093     0.005000
c     0.418605     0.511628     0.005000
c     0.441860     0.651163     0.005000
c     0.465116     0.790698     0.005000
c     0.488372     0.930233     0.005000
c     0.511628     0.069767     0.005000
c     0.534884     0.209302     0.005000
c     0.558140     0.348837     0.005000
c     0.581395     0.488372     0.005000
c     0.604651     0.627907     0.005000
c     0.627907     0.767442     0.005000
c     0.651163     0.906977     0.005000
c     0.674419     0.046512     0.005000
c     0.697674     0.186047     0.005000
c     0.720930     0.325581     0.005000
c     0.744186     0.465116     0.005000
c     0.767442     0.604651     0.005000
c     0.790698     0.744186     0.005000
c     0.813953     0.883721     0.005000
c     0.837209     0.023256     0.005000
c     0.860465     0.162791     0.005000
c     0.883721     0.302326     0.005000
c     0.906977     0.441860     0.005000
c     0.930233     0.581395     0.005000
c     0.953488     0.720930     0.005000
c     0.976744     0.860465     0.005000
c     0.015495     0.224810     0.500000
c     0.038756     0.062017     0.500000
c     0.062018     0.899225     0.500000
c     0.085279     0.736432     0.500000
c     0.108540     0.573639     0.500000
c     0.131765     0.410864     0.500000
c     0.155026     0.248072     0.500000
c     0.178288     0.085279     0.500000
c     0.201549     0.922486     0.500000
c     0.224811     0.759693     0.500000
c     0.248072     0.596900     0.500000
c     0.271297     0.434126     0.500000
c     0.294558     0.271333     0.500000
c     0.317819     0.108540     0.500000
c     0.341081     0.945747     0.500000
c     0.364342     0.782955     0.500000
c     0.387603     0.620162     0.500000
c     0.410865     0.457369     0.500000
c     0.434089     0.294594     0.500000
c     0.457351     0.131802     0.500000
c     0.480612     0.969009     0.500000
c     0.503873     0.806216     0.500000
c     0.527153     0.643386     0.500000
c     0.550415     0.480594     0.500000
c     0.573639     0.317819     0.500000
c     0.596901     0.155026     0.500000
c     0.620162     0.992233     0.500000
c     0.643423     0.829441     0.500000
c     0.666685     0.666648     0.500000
c     0.689946     0.503855     0.500000
c     0.713171     0.341080     0.500000
c     0.736432     0.178288     0.500000
c     0.759693     0.015495     0.500000
c     0.782955     0.852702     0.500000
c     0.806216     0.689909     0.500000
c     0.829477     0.527116     0.500000
c     0.852702     0.364342     0.500000
c     0.875963     0.201549     0.500000
c     0.899225     0.038756     0.500000
c     0.922486     0.875963     0.500000
c     0.945748     0.713170     0.500000
c     0.969009     0.550378     0.500000
c     0.992234     0.387603     0.500000
c     0.000000     0.000000     0.505000
c     0.023261     0.837207     0.505000
c     0.046523     0.674414     0.505000
c     0.069784     0.511622     0.505000
c     0.093009     0.348847     0.505000
c     0.116270     0.186054     0.505000
c     0.139531     0.023261     0.505000
c     0.162793     0.860469     0.505000
c     0.186054     0.697676     0.505000
c     0.209316     0.534883     0.505000
c     0.232540     0.372108     0.505000
c     0.255802     0.209316     0.505000
c     0.279063     0.046523     0.505000
c     0.302324     0.883730     0.505000
c     0.325586     0.720937     0.505000
c     0.348847     0.558144     0.505000
c     0.372072     0.395370     0.505000
c     0.395333     0.232577     0.505000
c     0.418594     0.069784     0.505000
c     0.441856     0.906991     0.505000
c     0.465117     0.744198     0.505000
c     0.488378     0.581406     0.505000
c     0.511603     0.418631     0.505000
c     0.534883     0.255802     0.505000
c     0.558144     0.093009     0.505000
c     0.581406     0.930216     0.505000
c     0.604667     0.767423     0.505000
c     0.627928     0.604630     0.505000
c     0.651153     0.441856     0.505000
c     0.674414     0.279063     0.505000
c     0.697676     0.116270     0.505000
c     0.720937     0.953477     0.505000
c     0.744198     0.790684     0.505000
c     0.767460     0.627892     0.505000
c     0.790721     0.465099     0.505000
c     0.813946     0.302324     0.505000
c     0.837207     0.139531     0.505000
c     0.860469     0.976739     0.505000
c     0.883730     0.813946     0.505000
c     0.906991     0.651153     0.505000
c     0.930253     0.488360     0.505000
c     0.953477     0.325586     0.505000
c     0.976739     0.162793     0.505000

K_POINTS automatic
8 8 1 1 1 1

CELL_PARAMETERS bohr
     28.295962        -11.669058  0.000000
     24.253682        18.670493   0.000000
     0.000000         0.000000    12.831239
