&control
 title='crystal',
 prefix='crystal',
 pseudo_dir='.',
 calculation='relax',
 etot_conv_thr=1.0D-5,
 forc_conv_thr=1.0D-4,
/
&system
 ibrav=0,
 nat= 196,
 ntyp= 1,
 ecutwfc=80.0,
 ecutrho=800.0,
 xdm=.true.,
 xdm_a1=0.6512,
 xdm_a2=1.4633,
/
&electrons
 conv_thr = 1d-8
/
&ions
/
&cell
/
ATOMIC_SPECIES
c     12.011 c.UPF

ATOMIC_POSITIONS crystal
c     0.013606     0.911564     0.000000
c     0.034014     0.278911     0.000000
c     0.054423     0.646258     0.000000
c     0.074831     0.013605     0.000000
c     0.095239     0.380952     0.000000
c     0.115647     0.748299     0.000000
c     0.136055     0.115646     0.000000
c     0.156463     0.482992     0.000000
c     0.176872     0.850339     0.000000
c     0.197280     0.217686     0.000000
c     0.217688     0.585033     0.000000
c     0.238096     0.952380     0.000000
c     0.258504     0.319727     0.000000
c     0.278912     0.687074     0.000000
c     0.299321     0.054421     0.000000
c     0.319729     0.421768     0.000000
c     0.340137     0.789115     0.000000
c     0.360545     0.156462     0.000000
c     0.380953     0.523809     0.000000
c     0.401361     0.891156     0.000000
c     0.421770     0.258503     0.000000
c     0.442178     0.625850     0.000000
c     0.462586     0.993197     0.000000
c     0.482994     0.360543     0.000000
c     0.503402     0.727890     0.000000
c     0.523810     0.095237     0.000000
c     0.544219     0.462584     0.000000
c     0.564627     0.829931     0.000000
c     0.585035     0.197278     0.000000
c     0.605443     0.564625     0.000000
c     0.625851     0.931972     0.000000
c     0.646259     0.299319     0.000000
c     0.666668     0.666666     0.000000
c     0.687076     0.034013     0.000000
c     0.707484     0.401360     0.000000
c     0.727892     0.768707     0.000000
c     0.748300     0.136054     0.000000
c     0.768708     0.503401     0.000000
c     0.789117     0.870748     0.000000
c     0.809525     0.238094     0.000000
c     0.829933     0.605441     0.000000
c     0.850341     0.972788     0.000000
c     0.870749     0.340135     0.000000
c     0.891157     0.707482     0.000000
c     0.911566     0.074829     0.000000
c     0.931974     0.442176     0.000000
c     0.952382     0.809523     0.000000
c     0.972790     0.176870     0.000000
c     0.993198     0.544217     0.000000
c     0.000000     0.000000     0.005000
c     0.020408     0.367347     0.005000
c     0.040816     0.734694     0.005000
c     0.061224     0.102041     0.005000
c     0.081633     0.469388     0.005000
c     0.102041     0.836735     0.005000
c     0.122449     0.204082     0.005000
c     0.142857     0.571429     0.005000
c     0.163265     0.938776     0.005000
c     0.183673     0.306122     0.005000
c     0.204082     0.673469     0.005000
c     0.224490     0.040816     0.005000
c     0.244898     0.408163     0.005000
c     0.265306     0.775510     0.005000
c     0.285714     0.142857     0.005000
c     0.306122     0.510204     0.005000
c     0.326531     0.877551     0.005000
c     0.346939     0.244898     0.005000
c     0.367347     0.612245     0.005000
c     0.387755     0.979592     0.005000
c     0.408163     0.346939     0.005000
c     0.428571     0.714286     0.005000
c     0.448980     0.081633     0.005000
c     0.469388     0.448980     0.005000
c     0.489796     0.816327     0.005000
c     0.510204     0.183673     0.005000
c     0.530612     0.551020     0.005000
c     0.551020     0.918367     0.005000
c     0.571429     0.285714     0.005000
c     0.591837     0.653061     0.005000
c     0.612245     0.020408     0.005000
c     0.632653     0.387755     0.005000
c     0.653061     0.755102     0.005000
c     0.673469     0.122449     0.005000
c     0.693878     0.489796     0.005000
c     0.714286     0.857143     0.005000
c     0.734694     0.224490     0.005000
c     0.755102     0.591837     0.005000
c     0.775510     0.959184     0.005000
c     0.795918     0.326531     0.005000
c     0.816327     0.693878     0.005000
c     0.836735     0.061224     0.005000
c     0.857143     0.428571     0.005000
c     0.877551     0.795918     0.005000
c     0.897959     0.163265     0.005000
c     0.918367     0.530612     0.005000
c     0.938776     0.897959     0.005000
c     0.959184     0.265306     0.005000
c     0.979592     0.632653     0.005000
c     0.013611     0.074826     0.500000
c     0.033992     0.687083     0.500000
c     0.054445     0.299304     0.500000
c     0.074826     0.911562     0.500000
c     0.095279     0.523783     0.500000
c     0.115660     0.136040     0.500000
c     0.136041     0.748298     0.500000
c     0.156494     0.360519     0.500000
c     0.176875     0.972777     0.500000
c     0.197256     0.585034     0.500000
c     0.217709     0.197255     0.500000
c     0.238090     0.809513     0.500000
c     0.258543     0.421734     0.500000
c     0.278924     0.033992     0.500000
c     0.299305     0.646249     0.500000
c     0.319758     0.258470     0.500000
c     0.340139     0.870728     0.500000
c     0.360592     0.482949     0.500000
c     0.380973     0.095206     0.500000
c     0.401354     0.707464     0.500000
c     0.421807     0.319685     0.500000
c     0.442188     0.931943     0.500000
c     0.462533     0.544272     0.500000
c     0.482986     0.156493     0.500000
c     0.503367     0.768751     0.500000
c     0.523820     0.380972     0.500000
c     0.544201     0.993230     0.500000
c     0.564582     0.605487     0.500000
c     0.585035     0.217708     0.500000
c     0.605416     0.829966     0.500000
c     0.625869     0.442187     0.500000
c     0.646250     0.054445     0.500000
c     0.666630     0.666702     0.500000
c     0.687084     0.278923     0.500000
c     0.707464     0.891181     0.500000
c     0.727918     0.503402     0.500000
c     0.748298     0.115659     0.500000
c     0.768679     0.727917     0.500000
c     0.789132     0.340138     0.500000
c     0.809513     0.952396     0.500000
c     0.829894     0.564653     0.500000
c     0.850347     0.176874     0.500000
c     0.870728     0.789132     0.500000
c     0.891181     0.401353     0.500000
c     0.911562     0.013611     0.500000
c     0.931943     0.625868     0.500000
c     0.952396     0.238089     0.500000
c     0.972777     0.850347     0.500000
c     0.993230     0.462568     0.500000
c     0.000000     0.000000     0.505000
c     0.020381     0.612257     0.505000
c     0.040834     0.224479     0.505000
c     0.061215     0.836736     0.505000
c     0.081668     0.448958     0.505000
c     0.102049     0.061215     0.505000
c     0.122430     0.673472     0.505000
c     0.142883     0.285694     0.505000
c     0.163264     0.897951     0.505000
c     0.183717     0.510172     0.505000
c     0.204098     0.122430     0.505000
c     0.224479     0.734687     0.505000
c     0.244932     0.346909     0.505000
c     0.265313     0.959166     0.505000
c     0.285694     0.571423     0.505000
c     0.306147     0.183645     0.505000
c     0.326528     0.795902     0.505000
c     0.346981     0.408124     0.505000
c     0.367362     0.020381     0.505000
c     0.387743     0.632638     0.505000
c     0.408196     0.244860     0.505000
c     0.428577     0.857117     0.505000
c     0.449030     0.469338     0.505000
c     0.469375     0.081668     0.505000
c     0.489755     0.693925     0.505000
c     0.510208     0.306147     0.505000
c     0.530589     0.918404     0.505000
c     0.551042     0.530625     0.505000
c     0.571423     0.142883     0.505000
c     0.591804     0.755140     0.505000
c     0.612257     0.367362     0.505000
c     0.632638     0.979619     0.505000
c     0.653019     0.591876     0.505000
c     0.673472     0.204098     0.505000
c     0.693853     0.816355     0.505000
c     0.714306     0.428577     0.505000
c     0.734687     0.040834     0.505000
c     0.755068     0.653091     0.505000
c     0.775521     0.265313     0.505000
c     0.795902     0.877570     0.505000
c     0.816355     0.489792     0.505000
c     0.836736     0.102049     0.505000
c     0.857117     0.714306     0.505000
c     0.877570     0.326528     0.505000
c     0.897951     0.938785     0.505000
c     0.918332     0.551042     0.505000
c     0.938785     0.163264     0.505000
c     0.959166     0.775521     0.505000
c     0.979619     0.387743     0.505000

K_POINTS automatic
8 8 1 1 1 1

CELL_PARAMETERS bohr
     32.338242        -4.667623  0.000000
     20.211401        25.671928  0.000000
     0.000000         0.000000   12.831239
