&control
 title='crystal',
 prefix='crystal',
 pseudo_dir='.',
 calculation='relax',
 etot_conv_thr=1.0D-5,
 forc_conv_thr=1.0D-4,
/
&system
 ibrav=0,
 nat= 244,
 ntyp= 1,
 ecutwfc=80.0,
 ecutrho=800.0,
 xdm=.true.,
 xdm_a1=0.6512,
 xdm_a2=1.4633,
/
&electrons
 conv_thr = 1d-8
/
&ions
/
&cell
/
ATOMIC_SPECIES
c     12.011 c.UPF

ATOMIC_POSITIONS crystal
c     0.005465     0.923497     0.000000
c     0.021859     0.693988     0.000000
c     0.038252     0.464480     0.000000
c     0.054646     0.234972     0.000000
c     0.071039     0.005464     0.000000
c     0.087432     0.775956     0.000000
c     0.103826     0.546447     0.000000
c     0.120219     0.316939     0.000000
c     0.136613     0.087431     0.000000
c     0.153006     0.857923     0.000000
c     0.169400     0.628415     0.000000
c     0.185793     0.398906     0.000000
c     0.202187     0.169398     0.000000
c     0.218580     0.939890     0.000000
c     0.234973     0.710382     0.000000
c     0.251367     0.480874     0.000000
c     0.267760     0.251365     0.000000
c     0.284154     0.021857     0.000000
c     0.300547     0.792349     0.000000
c     0.316941     0.562841     0.000000
c     0.333334     0.333333     0.000000
c     0.349728     0.103824     0.000000
c     0.366121     0.874316     0.000000
c     0.382514     0.644808     0.000000
c     0.398908     0.415300     0.000000
c     0.415301     0.185792     0.000000
c     0.431695     0.956283     0.000000
c     0.448088     0.726775     0.000000
c     0.464482     0.497267     0.000000
c     0.480875     0.267759     0.000000
c     0.497269     0.038251     0.000000
c     0.513662     0.808742     0.000000
c     0.530055     0.579234     0.000000
c     0.546449     0.349726     0.000000
c     0.562842     0.120218     0.000000
c     0.579236     0.890710     0.000000
c     0.595629     0.661201     0.000000
c     0.612023     0.431693     0.000000
c     0.628416     0.202185     0.000000
c     0.644810     0.972677     0.000000
c     0.661203     0.743169     0.000000
c     0.677596     0.513660     0.000000
c     0.693990     0.284152     0.000000
c     0.710383     0.054644     0.000000
c     0.726777     0.825136     0.000000
c     0.743170     0.595628     0.000000
c     0.759564     0.366120     0.000000
c     0.775957     0.136611     0.000000
c     0.792350     0.907103     0.000000
c     0.808744     0.677595     0.000000
c     0.825137     0.448087     0.000000
c     0.841531     0.218579     0.000000
c     0.857924     0.989070     0.000000
c     0.874318     0.759562     0.000000
c     0.890711     0.530054     0.000000
c     0.907105     0.300546     0.000000
c     0.923498     0.071038     0.000000
c     0.939891     0.841529     0.000000
c     0.956285     0.612021     0.000000
c     0.972678     0.382513     0.000000
c     0.989072     0.153005     0.000000
c     0.000000     0.000000     0.005000
c     0.016393     0.770492     0.005000
c     0.032787     0.540984     0.005000
c     0.049180     0.311475     0.005000
c     0.065574     0.081967     0.005000
c     0.081967     0.852459     0.005000
c     0.098361     0.622951     0.005000
c     0.114754     0.393443     0.005000
c     0.131148     0.163934     0.005000
c     0.147541     0.934426     0.005000
c     0.163934     0.704918     0.005000
c     0.180328     0.475410     0.005000
c     0.196721     0.245902     0.005000
c     0.213115     0.016393     0.005000
c     0.229508     0.786885     0.005000
c     0.245902     0.557377     0.005000
c     0.262295     0.327869     0.005000
c     0.278689     0.098361     0.005000
c     0.295082     0.868852     0.005000
c     0.311475     0.639344     0.005000
c     0.327869     0.409836     0.005000
c     0.344262     0.180328     0.005000
c     0.360656     0.950820     0.005000
c     0.377049     0.721311     0.005000
c     0.393443     0.491803     0.005000
c     0.409836     0.262295     0.005000
c     0.426230     0.032787     0.005000
c     0.442623     0.803279     0.005000
c     0.459016     0.573770     0.005000
c     0.475410     0.344262     0.005000
c     0.491803     0.114754     0.005000
c     0.508197     0.885246     0.005000
c     0.524590     0.655738     0.005000
c     0.540984     0.426230     0.005000
c     0.557377     0.196721     0.005000
c     0.573770     0.967213     0.005000
c     0.590164     0.737705     0.005000
c     0.606557     0.508197     0.005000
c     0.622951     0.278689     0.005000
c     0.639344     0.049180     0.005000
c     0.655738     0.819672     0.005000
c     0.672131     0.590164     0.005000
c     0.688525     0.360656     0.005000
c     0.704918     0.131148     0.005000
c     0.721311     0.901639     0.005000
c     0.737705     0.672131     0.005000
c     0.754098     0.442623     0.005000
c     0.770492     0.213115     0.005000
c     0.786885     0.983607     0.005000
c     0.803279     0.754098     0.005000
c     0.819672     0.524590     0.005000
c     0.836066     0.295082     0.005000
c     0.852459     0.065574     0.005000
c     0.868852     0.836066     0.005000
c     0.885246     0.606557     0.005000
c     0.901639     0.377049     0.005000
c     0.918033     0.147541     0.005000
c     0.934426     0.918033     0.005000
c     0.950820     0.688525     0.005000
c     0.967213     0.459016     0.005000
c     0.983607     0.229508     0.005000
c     0.005463     0.071038     0.500000
c     0.021852     0.284156     0.500000
c     0.038241     0.497273     0.500000
c     0.054650     0.710380     0.500000
c     0.071039     0.923497     0.500000
c     0.087428     0.136614     0.500000
c     0.103817     0.349732     0.500000
c     0.120226     0.562839     0.500000
c     0.136615     0.775956     0.500000
c     0.153004     0.989073     0.500000
c     0.169393     0.202190     0.500000
c     0.185782     0.415308     0.500000
c     0.202191     0.628415     0.500000
c     0.218580     0.841532     0.500000
c     0.234969     0.054649     0.500000
c     0.251358     0.267767     0.500000
c     0.267747     0.480884     0.500000
c     0.284156     0.693991     0.500000
c     0.300545     0.907108     0.500000
c     0.316934     0.120225     0.500000
c     0.333323     0.333343     0.500000
c     0.349732     0.546450     0.500000
c     0.366121     0.759567     0.500000
c     0.382510     0.972684     0.500000
c     0.398899     0.185801     0.500000
c     0.415288     0.398919     0.500000
c     0.431697     0.612026     0.500000
c     0.448086     0.825143     0.500000
c     0.464475     0.038260     0.500000
c     0.480864     0.251378     0.500000
c     0.497253     0.464495     0.500000
c     0.513662     0.677602     0.500000
c     0.530051     0.890719     0.500000
c     0.546450     0.103816     0.500000
c     0.562840     0.316934     0.500000
c     0.579249     0.530041     0.500000
c     0.595638     0.743158     0.500000
c     0.612027     0.956275     0.500000
c     0.628416     0.169392     0.500000
c     0.644805     0.382510     0.500000
c     0.661214     0.595617     0.500000
c     0.677603     0.808734     0.500000
c     0.693992     0.021851     0.500000
c     0.710381     0.234969     0.500000
c     0.726770     0.448086     0.500000
c     0.743179     0.661193     0.500000
c     0.759568     0.874310     0.500000
c     0.775957     0.087427     0.500000
c     0.792346     0.300545     0.500000
c     0.808755     0.513652     0.500000
c     0.825144     0.726769     0.500000
c     0.841533     0.939886     0.500000
c     0.857922     0.153003     0.500000
c     0.874311     0.366121     0.500000
c     0.890720     0.579228     0.500000
c     0.907109     0.792345     0.500000
c     0.923498     0.005462     0.500000
c     0.939887     0.218580     0.500000
c     0.956276     0.431697     0.500000
c     0.972685     0.644804     0.500000
c     0.989074     0.857921     0.500000
c     0.000000     0.000000     0.505000
c     0.016389     0.213117     0.505000
c     0.032778     0.426234     0.505000
c     0.049187     0.639342     0.505000
c     0.065576     0.852459     0.505000
c     0.081965     0.065576     0.505000
c     0.098354     0.278693     0.505000
c     0.114743     0.491810     0.505000
c     0.131152     0.704918     0.505000
c     0.147541     0.918035     0.505000
c     0.163930     0.131152     0.505000
c     0.180319     0.344269     0.505000
c     0.196728     0.557377     0.505000
c     0.213117     0.770494     0.505000
c     0.229506     0.983611     0.505000
c     0.245895     0.196728     0.505000
c     0.262284     0.409845     0.505000
c     0.278693     0.622953     0.505000
c     0.295082     0.836070     0.505000
c     0.311471     0.049187     0.505000
c     0.327860     0.262304     0.505000
c     0.344249     0.475421     0.505000
c     0.360658     0.688529     0.505000
c     0.377047     0.901646     0.505000
c     0.393436     0.114763     0.505000
c     0.409825     0.327880     0.505000
c     0.426234     0.540988     0.505000
c     0.442623     0.754105     0.505000
c     0.459012     0.967222     0.505000
c     0.475401     0.180339     0.505000
c     0.491790     0.393456     0.505000
c     0.508200     0.606564     0.505000
c     0.524589     0.819681     0.505000
c     0.540988     0.032778     0.505000
c     0.557377     0.245895     0.505000
c     0.573766     0.459012     0.505000
c     0.590175     0.672120     0.505000
c     0.606564     0.885237     0.505000
c     0.622953     0.098354     0.505000
c     0.639342     0.311471     0.505000
c     0.655751     0.524579     0.505000
c     0.672140     0.737696     0.505000
c     0.688529     0.950813     0.505000
c     0.704918     0.163930     0.505000
c     0.721307     0.377047     0.505000
c     0.737716     0.590155     0.505000
c     0.754105     0.803272     0.505000
c     0.770494     0.016389     0.505000
c     0.786883     0.229506     0.505000
c     0.803272     0.442623     0.505000
c     0.819681     0.655731     0.505000
c     0.836070     0.868848     0.505000
c     0.852459     0.081965     0.505000
c     0.868848     0.295082     0.505000
c     0.885257     0.508190     0.505000
c     0.901646     0.721307     0.505000
c     0.918035     0.934424     0.505000
c     0.934424     0.147541     0.505000
c     0.950813     0.360658     0.505000
c     0.967222     0.573766     0.505000
c     0.983611     0.786883     0.505000

K_POINTS automatic
8 8 1 1 1 1

CELL_PARAMETERS bohr
     36.380522        -2.333812  0.000000
     20.211401        30.339551  0.000000
     0.000000         0.000000   12.831239
