&control
 title='crystal',
 prefix='crystal',
 pseudo_dir='.',
 calculation='relax',
 etot_conv_thr=1.0D-5,
 forc_conv_thr=1.0D-4,
/
&system
 ibrav=0,
 nat= 268,
 ntyp= 1,
 ecutwfc=80.0,
 ecutrho=800.0,
 xdm=.true.,
 xdm_a1=0.6512,
 xdm_a2=1.4633,
/
&electrons
 conv_thr = 1d-8
/
&ions
/
&cell
/
ATOMIC_SPECIES
c     12.011 c.UPF

ATOMIC_POSITIONS crystal
c     0.009951     0.368159     0.000000
c     0.024876     0.920397     0.000000
c     0.039802     0.472636     0.000000
c     0.054727     0.024875     0.000000
c     0.069653     0.577114     0.000000
c     0.084578     0.129353     0.000000
c     0.099503     0.681591     0.000000
c     0.114429     0.233830     0.000000
c     0.129354     0.786069     0.000000
c     0.144279     0.338308     0.000000
c     0.159205     0.890547     0.000000
c     0.174130     0.442786     0.000000
c     0.189056     0.995024     0.000000
c     0.203981     0.547263     0.000000
c     0.218906     0.099502     0.000000
c     0.233832     0.651741     0.000000
c     0.248757     0.203980     0.000000
c     0.263682     0.756218     0.000000
c     0.278608     0.308457     0.000000
c     0.293533     0.860696     0.000000
c     0.308459     0.412935     0.000000
c     0.323384     0.965174     0.000000
c     0.338309     0.517412     0.000000
c     0.353235     0.069651     0.000000
c     0.368160     0.621890     0.000000
c     0.383085     0.174129     0.000000
c     0.398011     0.726368     0.000000
c     0.412936     0.278606     0.000000
c     0.427861     0.830845     0.000000
c     0.442787     0.383084     0.000000
c     0.457712     0.935323     0.000000
c     0.472638     0.487562     0.000000
c     0.487563     0.039800     0.000000
c     0.502488     0.592039     0.000000
c     0.517414     0.144278     0.000000
c     0.532339     0.696517     0.000000
c     0.547264     0.248756     0.000000
c     0.562190     0.800994     0.000000
c     0.577115     0.353233     0.000000
c     0.592041     0.905472     0.000000
c     0.606966     0.457711     0.000000
c     0.621891     0.009950     0.000000
c     0.636817     0.562189     0.000000
c     0.651742     0.114427     0.000000
c     0.666667     0.666666     0.000000
c     0.681593     0.218905     0.000000
c     0.696518     0.771144     0.000000
c     0.711444     0.323383     0.000000
c     0.726369     0.875621     0.000000
c     0.741294     0.427860     0.000000
c     0.756220     0.980099     0.000000
c     0.771145     0.532338     0.000000
c     0.786070     0.084577     0.000000
c     0.800996     0.636815     0.000000
c     0.815921     0.189054     0.000000
c     0.830847     0.741293     0.000000
c     0.845772     0.293532     0.000000
c     0.860697     0.845771     0.000000
c     0.875623     0.398009     0.000000
c     0.890548     0.950248     0.000000
c     0.905473     0.502487     0.000000
c     0.920399     0.054726     0.000000
c     0.935324     0.606965     0.000000
c     0.950250     0.159203     0.000000
c     0.965175     0.711442     0.000000
c     0.980100     0.263681     0.000000
c     0.995026     0.815920     0.000000
c     0.000000     0.000000     0.005000
c     0.014925     0.552239     0.005000
c     0.029851     0.104478     0.005000
c     0.044776     0.656716     0.005000
c     0.059701     0.208955     0.005000
c     0.074627     0.761194     0.005000
c     0.089552     0.313433     0.005000
c     0.104478     0.865672     0.005000
c     0.119403     0.417910     0.005000
c     0.134328     0.970149     0.005000
c     0.149254     0.522388     0.005000
c     0.164179     0.074627     0.005000
c     0.179104     0.626866     0.005000
c     0.194030     0.179104     0.005000
c     0.208955     0.731343     0.005000
c     0.223881     0.283582     0.005000
c     0.238806     0.835821     0.005000
c     0.253731     0.388060     0.005000
c     0.268657     0.940299     0.005000
c     0.283582     0.492537     0.005000
c     0.298507     0.044776     0.005000
c     0.313433     0.597015     0.005000
c     0.328358     0.149254     0.005000
c     0.343284     0.701493     0.005000
c     0.358209     0.253731     0.005000
c     0.373134     0.805970     0.005000
c     0.388060     0.358209     0.005000
c     0.402985     0.910448     0.005000
c     0.417910     0.462687     0.005000
c     0.432836     0.014925     0.005000
c     0.447761     0.567164     0.005000
c     0.462687     0.119403     0.005000
c     0.477612     0.671642     0.005000
c     0.492537     0.223881     0.005000
c     0.507463     0.776119     0.005000
c     0.522388     0.328358     0.005000
c     0.537313     0.880597     0.005000
c     0.552239     0.432836     0.005000
c     0.567164     0.985075     0.005000
c     0.582090     0.537313     0.005000
c     0.597015     0.089552     0.005000
c     0.611940     0.641791     0.005000
c     0.626866     0.194030     0.005000
c     0.641791     0.746269     0.005000
c     0.656716     0.298507     0.005000
c     0.671642     0.850746     0.005000
c     0.686567     0.402985     0.005000
c     0.701493     0.955224     0.005000
c     0.716418     0.507463     0.005000
c     0.731343     0.059701     0.005000
c     0.746269     0.611940     0.005000
c     0.761194     0.164179     0.005000
c     0.776119     0.716418     0.005000
c     0.791045     0.268657     0.005000
c     0.805970     0.820896     0.005000
c     0.820896     0.373134     0.005000
c     0.835821     0.925373     0.005000
c     0.850746     0.477612     0.005000
c     0.865672     0.029851     0.005000
c     0.880597     0.582090     0.005000
c     0.895522     0.134328     0.005000
c     0.910448     0.686567     0.005000
c     0.925373     0.238806     0.005000
c     0.940299     0.791045     0.005000
c     0.955224     0.343284     0.005000
c     0.970149     0.895522     0.005000
c     0.985075     0.447761     0.005000
c     0.009930     0.621900     0.500000
c     0.024879     0.054723     0.500000
c     0.039828     0.487546     0.500000
c     0.054723     0.920397     0.500000
c     0.069673     0.353220     0.500000
c     0.084568     0.786070     0.500000
c     0.099517     0.218894     0.500000
c     0.114412     0.651744     0.500000
c     0.129361     0.084567     0.500000
c     0.144256     0.517418     0.500000
c     0.159205     0.950241     0.500000
c     0.174155     0.383064     0.500000
c     0.189050     0.815915     0.500000
c     0.203999     0.248738     0.500000
c     0.218894     0.681588     0.500000
c     0.233843     0.114411     0.500000
c     0.248738     0.547262     0.500000
c     0.263687     0.980085     0.500000
c     0.278637     0.412908     0.500000
c     0.293532     0.845759     0.500000
c     0.308481     0.278582     0.500000
c     0.323376     0.711433     0.500000
c     0.338325     0.144256     0.500000
c     0.353220     0.577106     0.500000
c     0.368170     0.009929     0.500000
c     0.383119     0.442753     0.500000
c     0.398014     0.875603     0.500000
c     0.412963     0.308426     0.500000
c     0.427858     0.741277     0.500000
c     0.442807     0.174100     0.500000
c     0.457702     0.606950     0.500000
c     0.472652     0.039774     0.500000
c     0.487601     0.472597     0.500000
c     0.502496     0.905447     0.500000
c     0.517445     0.338271     0.500000
c     0.532313     0.771175     0.500000
c     0.547262     0.203999     0.500000
c     0.562157     0.636849     0.500000
c     0.577106     0.069672     0.500000
c     0.592056     0.502496     0.500000
c     0.606951     0.935346     0.500000
c     0.621900     0.368169     0.500000
c     0.636795     0.801020     0.500000
c     0.651744     0.233843     0.500000
c     0.666639     0.666693     0.500000
c     0.681589     0.099517     0.500000
c     0.696483     0.532367     0.500000
c     0.711433     0.965190     0.500000
c     0.726382     0.398013     0.500000
c     0.741277     0.830864     0.500000
c     0.756226     0.263687     0.500000
c     0.771121     0.696538     0.500000
c     0.786071     0.129361     0.500000
c     0.800966     0.562211     0.500000
c     0.815915     0.995034     0.500000
c     0.830864     0.427858     0.500000
c     0.845759     0.860708     0.500000
c     0.860708     0.293531     0.500000
c     0.875603     0.726382     0.500000
c     0.890553     0.159205     0.500000
c     0.905448     0.592055     0.500000
c     0.920397     0.024879     0.500000
c     0.935346     0.457702     0.500000
c     0.950241     0.890552     0.500000
c     0.965191     0.323376     0.500000
c     0.980085     0.756226     0.500000
c     0.995035     0.189049     0.500000
c     0.000000     0.000000     0.505000
c     0.014949     0.432823     0.505000
c     0.029844     0.865674     0.505000
c     0.044794     0.298497     0.505000
c     0.059689     0.731347     0.505000
c     0.074638     0.164171     0.505000
c     0.089533     0.597021     0.505000
c     0.104482     0.029844     0.505000
c     0.119431     0.462667     0.505000
c     0.134326     0.895518     0.505000
c     0.149276     0.328341     0.505000
c     0.164171     0.761192     0.505000
c     0.179120     0.194015     0.505000
c     0.194015     0.626865     0.505000
c     0.208964     0.059689     0.505000
c     0.223913     0.492512     0.505000
c     0.238808     0.925362     0.505000
c     0.253758     0.358185     0.505000
c     0.268653     0.791036     0.505000
c     0.283602     0.223859     0.505000
c     0.298497     0.656710     0.505000
c     0.313446     0.089533     0.505000
c     0.328341     0.522383     0.505000
c     0.343290     0.955206     0.505000
c     0.358240     0.388030     0.505000
c     0.373135     0.820880     0.505000
c     0.388084     0.253703     0.505000
c     0.402979     0.686554     0.505000
c     0.417928     0.119377     0.505000
c     0.432823     0.552227     0.505000
c     0.447773     0.985051     0.505000
c     0.462722     0.417874     0.505000
c     0.477617     0.850724     0.505000
c     0.492566     0.283548     0.505000
c     0.507461     0.716398     0.505000
c     0.522410     0.149221     0.505000
c     0.537278     0.582126     0.505000
c     0.552227     0.014949     0.505000
c     0.567177     0.447773     0.505000
c     0.582072     0.880623     0.505000
c     0.597021     0.313446     0.505000
c     0.611916     0.746297     0.505000
c     0.626865     0.179120     0.505000
c     0.641760     0.611970     0.505000
c     0.656710     0.044794     0.505000
c     0.671659     0.477617     0.505000
c     0.686554     0.910467     0.505000
c     0.701503     0.343290     0.505000
c     0.716398     0.776141     0.505000
c     0.731347     0.208964     0.505000
c     0.746242     0.641815     0.505000
c     0.761192     0.074638     0.505000
c     0.776141     0.507461     0.505000
c     0.791036     0.940311     0.505000
c     0.805985     0.373135     0.505000
c     0.820880     0.805985     0.505000
c     0.835829     0.238808     0.505000
c     0.850724     0.671659     0.505000
c     0.865674     0.104482     0.505000
c     0.880569     0.537333     0.505000
c     0.895518     0.970156     0.505000
c     0.910467     0.402979     0.505000
c     0.925362     0.835829     0.505000
c     0.940311     0.268653     0.505000
c     0.955206     0.701503     0.505000
c     0.970156     0.134326     0.505000
c     0.985051     0.567177     0.505000

K_POINTS automatic
8 8 1 1 1 1

CELL_PARAMETERS bohr
     36.380522        -11.669058  0.000000
     28.295962        25.671928   0.000000
     0.000000         0.000000    12.831239
