&control
 title='crystal',
 prefix='crystal',
 pseudo_dir='.',
 calculation='relax',
 etot_conv_thr=1.0D-5,
 forc_conv_thr=1.0D-4,
/
&system
 ibrav=0,
 nat= 28,
 ntyp= 1,
 ecutwfc=80.0,
 ecutrho=800.0,
 xdm=.true.,
 xdm_a1=0.6512,
 xdm_a2=1.4633,
/
&electrons
 conv_thr = 1d-8
/
&ions
/
&cell
/
ATOMIC_SPECIES
c     12.011 c.UPF

ATOMIC_POSITIONS crystal
c     0.047621     0.761903     0.000000
c     0.190479     0.047617     0.000000
c     0.333336     0.333331     0.000000
c     0.476193     0.619046     0.000000
c     0.619050     0.904760     0.000000
c     0.761907     0.190474     0.000000
c     0.904764     0.476189     0.000000
c     0.000000     0.000000     0.005000
c     0.142857     0.285714     0.005000
c     0.285714     0.571429     0.005000
c     0.428571     0.857143     0.005000
c     0.571429     0.142857     0.005000
c     0.714286     0.428571     0.005000
c     0.857143     0.714286     0.005000
c     0.047632     0.190465     0.500000
c     0.190466     0.761898     0.500000
c     0.333365     0.333299     0.500000
c     0.476199     0.904732     0.500000
c     0.619001     0.476230     0.500000
c     0.761900     0.047631     0.500000
c     0.904734     0.619064     0.500000
c     0.000000     0.000000     0.505000
c     0.142834     0.571433     0.505000
c     0.285733     0.142834     0.505000
c     0.428567     0.714267     0.505000
c     0.571433     0.285733     0.505000
c     0.714267     0.857166     0.505000
c     0.857101     0.428599     0.505000

K_POINTS automatic
8 8 1 1 1 1

CELL_PARAMETERS bohr
     12.126841        -2.333812  0.000000
     8.084561         9.335246   0.000000
     0.000000         0.000000   12.831239
