&control
 title='crystal',
 prefix='crystal',
 pseudo_dir='.',
 calculation='relax',
 etot_conv_thr=1.0D-5,
 forc_conv_thr=1.0D-4,
/
&system
 ibrav=0,
 nat= 316,
 ntyp= 1,
 ecutwfc=80.0,
 ecutrho=800.0,
 xdm=.true.,
 xdm_a1=0.6512,
 xdm_a2=1.4633,
/
&electrons
 conv_thr = 1d-8
/
&ions
/
&cell
/
ATOMIC_SPECIES
c     12.011 c.UPF

ATOMIC_POSITIONS crystal
c     0.004220     0.232067     0.000000
c     0.016878     0.928269     0.000000
c     0.029537     0.624472     0.000000
c     0.042195     0.320675     0.000000
c     0.054853     0.016877     0.000000
c     0.067511     0.713080     0.000000
c     0.080169     0.409282     0.000000
c     0.092828     0.105485     0.000000
c     0.105486     0.801687     0.000000
c     0.118144     0.497890     0.000000
c     0.130802     0.194092     0.000000
c     0.143461     0.890295     0.000000
c     0.156119     0.586497     0.000000
c     0.168777     0.282700     0.000000
c     0.181435     0.978902     0.000000
c     0.194094     0.675105     0.000000
c     0.206752     0.371307     0.000000
c     0.219410     0.067510     0.000000
c     0.232068     0.763713     0.000000
c     0.244726     0.459915     0.000000
c     0.257385     0.156118     0.000000
c     0.270043     0.852320     0.000000
c     0.282701     0.548523     0.000000
c     0.295359     0.244725     0.000000
c     0.308018     0.940928     0.000000
c     0.320676     0.637130     0.000000
c     0.333334     0.333333     0.000000
c     0.345992     0.029535     0.000000
c     0.358651     0.725738     0.000000
c     0.371309     0.421940     0.000000
c     0.383967     0.118143     0.000000
c     0.396625     0.814345     0.000000
c     0.409283     0.510548     0.000000
c     0.421942     0.206751     0.000000
c     0.434600     0.902953     0.000000
c     0.447258     0.599156     0.000000
c     0.459916     0.295358     0.000000
c     0.472575     0.991561     0.000000
c     0.485233     0.687763     0.000000
c     0.497891     0.383966     0.000000
c     0.510549     0.080168     0.000000
c     0.523207     0.776371     0.000000
c     0.535866     0.472573     0.000000
c     0.548524     0.168776     0.000000
c     0.561182     0.864978     0.000000
c     0.573840     0.561181     0.000000
c     0.586499     0.257383     0.000000
c     0.599157     0.953586     0.000000
c     0.611815     0.649788     0.000000
c     0.624473     0.345991     0.000000
c     0.637132     0.042194     0.000000
c     0.649790     0.738396     0.000000
c     0.662448     0.434599     0.000000
c     0.675106     0.130801     0.000000
c     0.687764     0.827004     0.000000
c     0.700423     0.523206     0.000000
c     0.713081     0.219409     0.000000
c     0.725739     0.915611     0.000000
c     0.738397     0.611814     0.000000
c     0.751056     0.308016     0.000000
c     0.763714     0.004219     0.000000
c     0.776372     0.700421     0.000000
c     0.789030     0.396624     0.000000
c     0.801688     0.092826     0.000000
c     0.814347     0.789029     0.000000
c     0.827005     0.485232     0.000000
c     0.839663     0.181434     0.000000
c     0.852321     0.877637     0.000000
c     0.864980     0.573839     0.000000
c     0.877638     0.270042     0.000000
c     0.890296     0.966244     0.000000
c     0.902954     0.662447     0.000000
c     0.915613     0.358649     0.000000
c     0.928271     0.054852     0.000000
c     0.940929     0.751054     0.000000
c     0.953587     0.447257     0.000000
c     0.966245     0.143459     0.000000
c     0.978904     0.839662     0.000000
c     0.991562     0.535864     0.000000
c     0.000000     0.000000     0.005000
c     0.012658     0.696203     0.005000
c     0.025316     0.392405     0.005000
c     0.037975     0.088608     0.005000
c     0.050633     0.784810     0.005000
c     0.063291     0.481013     0.005000
c     0.075949     0.177215     0.005000
c     0.088608     0.873418     0.005000
c     0.101266     0.569620     0.005000
c     0.113924     0.265823     0.005000
c     0.126582     0.962025     0.005000
c     0.139241     0.658228     0.005000
c     0.151899     0.354430     0.005000
c     0.164557     0.050633     0.005000
c     0.177215     0.746835     0.005000
c     0.189873     0.443038     0.005000
c     0.202532     0.139241     0.005000
c     0.215190     0.835443     0.005000
c     0.227848     0.531646     0.005000
c     0.240506     0.227848     0.005000
c     0.253165     0.924051     0.005000
c     0.265823     0.620253     0.005000
c     0.278481     0.316456     0.005000
c     0.291139     0.012658     0.005000
c     0.303797     0.708861     0.005000
c     0.316456     0.405063     0.005000
c     0.329114     0.101266     0.005000
c     0.341772     0.797468     0.005000
c     0.354430     0.493671     0.005000
c     0.367089     0.189873     0.005000
c     0.379747     0.886076     0.005000
c     0.392405     0.582278     0.005000
c     0.405063     0.278481     0.005000
c     0.417722     0.974684     0.005000
c     0.430380     0.670886     0.005000
c     0.443038     0.367089     0.005000
c     0.455696     0.063291     0.005000
c     0.468354     0.759494     0.005000
c     0.481013     0.455696     0.005000
c     0.493671     0.151899     0.005000
c     0.506329     0.848101     0.005000
c     0.518987     0.544304     0.005000
c     0.531646     0.240506     0.005000
c     0.544304     0.936709     0.005000
c     0.556962     0.632911     0.005000
c     0.569620     0.329114     0.005000
c     0.582278     0.025316     0.005000
c     0.594937     0.721519     0.005000
c     0.607595     0.417722     0.005000
c     0.620253     0.113924     0.005000
c     0.632911     0.810127     0.005000
c     0.645570     0.506329     0.005000
c     0.658228     0.202532     0.005000
c     0.670886     0.898734     0.005000
c     0.683544     0.594937     0.005000
c     0.696203     0.291139     0.005000
c     0.708861     0.987342     0.005000
c     0.721519     0.683544     0.005000
c     0.734177     0.379747     0.005000
c     0.746835     0.075949     0.005000
c     0.759494     0.772152     0.005000
c     0.772152     0.468354     0.005000
c     0.784810     0.164557     0.005000
c     0.797468     0.860759     0.005000
c     0.810127     0.556962     0.005000
c     0.822785     0.253165     0.005000
c     0.835443     0.949367     0.005000
c     0.848101     0.645570     0.005000
c     0.860759     0.341772     0.005000
c     0.873418     0.037975     0.005000
c     0.886076     0.734177     0.005000
c     0.898734     0.430380     0.005000
c     0.911392     0.126582     0.005000
c     0.924051     0.822785     0.005000
c     0.936709     0.518987     0.005000
c     0.949367     0.215190     0.005000
c     0.962025     0.911392     0.005000
c     0.974684     0.607595     0.005000
c     0.987342     0.303797     0.005000
c     0.004209     0.763718     0.500000
c     0.016880     0.054850     0.500000
c     0.029552     0.345982     0.500000
c     0.042179     0.637136     0.500000
c     0.054850     0.928269     0.500000
c     0.067521     0.219401     0.500000
c     0.080193     0.510533     0.500000
c     0.092820     0.801687     0.500000
c     0.105491     0.092820     0.500000
c     0.118163     0.383952     0.500000
c     0.130790     0.675106     0.500000
c     0.143461     0.966239     0.500000
c     0.156133     0.257371     0.500000
c     0.168760     0.548525     0.500000
c     0.181431     0.839657     0.500000
c     0.194103     0.130790     0.500000
c     0.206774     0.421922     0.500000
c     0.219401     0.713076     0.500000
c     0.232073     0.004209     0.500000
c     0.244744     0.295341     0.500000
c     0.257371     0.586495     0.500000
c     0.270043     0.877627     0.500000
c     0.282714     0.168760     0.500000
c     0.295385     0.459892     0.500000
c     0.308013     0.751046     0.500000
c     0.320684     0.042179     0.500000
c     0.333355     0.333311     0.500000
c     0.345983     0.624465     0.500000
c     0.358654     0.915597     0.500000
c     0.371325     0.206730     0.500000
c     0.383996     0.497862     0.500000
c     0.396624     0.789016     0.500000
c     0.409295     0.080149     0.500000
c     0.421966     0.371281     0.500000
c     0.434594     0.662435     0.500000
c     0.447265     0.953567     0.500000
c     0.459936     0.244700     0.500000
c     0.472542     0.535898     0.500000
c     0.485213     0.827030     0.500000
c     0.497884     0.118162     0.500000
c     0.510556     0.409295     0.500000
c     0.523183     0.700449     0.500000
c     0.535854     0.991581     0.500000
c     0.548526     0.282713     0.500000
c     0.561153     0.573868     0.500000
c     0.573824     0.865000     0.500000
c     0.586496     0.156132     0.500000
c     0.599167     0.447265     0.500000
c     0.611794     0.738419     0.500000
c     0.624465     0.029551     0.500000
c     0.637137     0.320683     0.500000
c     0.649764     0.611838     0.500000
c     0.662435     0.902970     0.500000
c     0.675107     0.194102     0.500000
c     0.687778     0.485235     0.500000
c     0.700405     0.776389     0.500000
c     0.713077     0.067521     0.500000
c     0.725748     0.358653     0.500000
c     0.738375     0.649808     0.500000
c     0.751047     0.940940     0.500000
c     0.763718     0.232072     0.500000
c     0.776389     0.523205     0.500000
c     0.789017     0.814359     0.500000
c     0.801688     0.105491     0.500000
c     0.814359     0.396623     0.500000
c     0.826987     0.687778     0.500000
c     0.839658     0.978910     0.500000
c     0.852329     0.270042     0.500000
c     0.864957     0.561196     0.500000
c     0.877628     0.852329     0.500000
c     0.890299     0.143461     0.500000
c     0.902970     0.434593     0.500000
c     0.915598     0.725748     0.500000
c     0.928269     0.016880     0.500000
c     0.940940     0.308012     0.500000
c     0.953568     0.599166     0.500000
c     0.966239     0.890299     0.500000
c     0.978910     0.181431     0.500000
c     0.991582     0.472563     0.500000
c     0.000000     0.000000     0.505000
c     0.012671     0.291132     0.505000
c     0.025299     0.582287     0.505000
c     0.037970     0.873419     0.505000
c     0.050641     0.164551     0.505000
c     0.063313     0.455683     0.505000
c     0.075940     0.746838     0.505000
c     0.088611     0.037970     0.505000
c     0.101282     0.329102     0.505000
c     0.113910     0.620256     0.505000
c     0.126581     0.911389     0.505000
c     0.139252     0.202521     0.505000
c     0.151924     0.493653     0.505000
c     0.164551     0.784808     0.505000
c     0.177222     0.075940     0.505000
c     0.189894     0.367072     0.505000
c     0.202521     0.658226     0.505000
c     0.215192     0.949359     0.505000
c     0.227864     0.240491     0.505000
c     0.240491     0.531645     0.505000
c     0.253162     0.822778     0.505000
c     0.265834     0.113910     0.505000
c     0.278505     0.405042     0.505000
c     0.291132     0.696196     0.505000
c     0.303804     0.987329     0.505000
c     0.316475     0.278461     0.505000
c     0.329102     0.569615     0.505000
c     0.341774     0.860748     0.505000
c     0.354445     0.151880     0.505000
c     0.367116     0.443012     0.505000
c     0.379744     0.734166     0.505000
c     0.392415     0.025299     0.505000
c     0.405086     0.316431     0.505000
c     0.417713     0.607585     0.505000
c     0.430385     0.898718     0.505000
c     0.443056     0.189850     0.505000
c     0.455727     0.480982     0.505000
c     0.468333     0.772180     0.505000
c     0.481004     0.063313     0.505000
c     0.493675     0.354445     0.505000
c     0.506303     0.645599     0.505000
c     0.518974     0.936731     0.505000
c     0.531645     0.227864     0.505000
c     0.544317     0.518996     0.505000
c     0.556944     0.810150     0.505000
c     0.569615     0.101282     0.505000
c     0.582287     0.392415     0.505000
c     0.594914     0.683569     0.505000
c     0.607585     0.974701     0.505000
c     0.620256     0.265834     0.505000
c     0.632884     0.556988     0.505000
c     0.645555     0.848120     0.505000
c     0.658226     0.139252     0.505000
c     0.670898     0.430385     0.505000
c     0.683525     0.721539     0.505000
c     0.696196     0.012671     0.505000
c     0.708868     0.303804     0.505000
c     0.721495     0.594958     0.505000
c     0.734166     0.886090     0.505000
c     0.746838     0.177222     0.505000
c     0.759509     0.468355     0.505000
c     0.772136     0.759509     0.505000
c     0.784808     0.050641     0.505000
c     0.797479     0.341774     0.505000
c     0.810106     0.632928     0.505000
c     0.822778     0.924060     0.505000
c     0.835449     0.215192     0.505000
c     0.848120     0.506325     0.505000
c     0.860748     0.797479     0.505000
c     0.873419     0.088611     0.505000
c     0.886090     0.379744     0.505000
c     0.898718     0.670898     0.505000
c     0.911389     0.962030     0.505000
c     0.924060     0.253162     0.505000
c     0.936687     0.544317     0.505000
c     0.949359     0.835449     0.505000
c     0.962030     0.126581     0.505000
c     0.974701     0.417713     0.505000
c     0.987329     0.708868     0.505000

K_POINTS automatic
8 8 1 1 1 1

CELL_PARAMETERS bohr
     40.422803        -9.335246  0.000000
     28.295962        30.339551  0.000000
     0.000000         0.000000   12.831239
