&control
 title='crystal',
 prefix='crystal',
 pseudo_dir='.',
 calculation='relax',
 etot_conv_thr=1.0D-5,
 forc_conv_thr=1.0D-4,
/
&system
 ibrav=0,
 nat= 364,
 ntyp= 1,
 ecutwfc=80.0,
 ecutrho=800.0,
 xdm=.true.,
 xdm_a1=0.6512,
 xdm_a2=1.4633,
/
&electrons
 conv_thr = 1d-8
/
&ions
/
&cell
/
ATOMIC_SPECIES
c     12.011 c.UPF

ATOMIC_POSITIONS crystal
c     0.003664     0.937728     0.000000
c     0.014653     0.750915     0.000000
c     0.025642     0.564102     0.000000
c     0.036631     0.377289     0.000000
c     0.047620     0.190476     0.000000
c     0.058609     0.003662     0.000000
c     0.069598     0.816849     0.000000
c     0.080587     0.630036     0.000000
c     0.091576     0.443223     0.000000
c     0.102565     0.256410     0.000000
c     0.113554     0.069596     0.000000
c     0.124543     0.882783     0.000000
c     0.135532     0.695970     0.000000
c     0.146521     0.509157     0.000000
c     0.157510     0.322344     0.000000
c     0.168499     0.135531     0.000000
c     0.179488     0.948717     0.000000
c     0.190477     0.761904     0.000000
c     0.201466     0.575091     0.000000
c     0.212455     0.388278     0.000000
c     0.223444     0.201465     0.000000
c     0.234433     0.014651     0.000000
c     0.245422     0.827838     0.000000
c     0.256411     0.641025     0.000000
c     0.267400     0.454212     0.000000
c     0.278389     0.267399     0.000000
c     0.289378     0.080585     0.000000
c     0.300367     0.893772     0.000000
c     0.311356     0.706959     0.000000
c     0.322345     0.520146     0.000000
c     0.333334     0.333333     0.000000
c     0.344323     0.146520     0.000000
c     0.355312     0.959706     0.000000
c     0.366301     0.772893     0.000000
c     0.377290     0.586080     0.000000
c     0.388279     0.399267     0.000000
c     0.399268     0.212454     0.000000
c     0.410257     0.025640     0.000000
c     0.421246     0.838827     0.000000
c     0.432235     0.652014     0.000000
c     0.443224     0.465201     0.000000
c     0.454213     0.278388     0.000000
c     0.465202     0.091575     0.000000
c     0.476191     0.904761     0.000000
c     0.487180     0.717948     0.000000
c     0.498169     0.531135     0.000000
c     0.509158     0.344322     0.000000
c     0.520147     0.157509     0.000000
c     0.531136     0.970695     0.000000
c     0.542125     0.783882     0.000000
c     0.553114     0.597069     0.000000
c     0.564103     0.410256     0.000000
c     0.575092     0.223443     0.000000
c     0.586081     0.036629     0.000000
c     0.597070     0.849816     0.000000
c     0.608059     0.663003     0.000000
c     0.619048     0.476190     0.000000
c     0.630037     0.289377     0.000000
c     0.641026     0.102564     0.000000
c     0.652015     0.915750     0.000000
c     0.663004     0.728937     0.000000
c     0.673993     0.542124     0.000000
c     0.684982     0.355311     0.000000
c     0.695971     0.168498     0.000000
c     0.706960     0.981684     0.000000
c     0.717949     0.794871     0.000000
c     0.728938     0.608058     0.000000
c     0.739927     0.421245     0.000000
c     0.750916     0.234432     0.000000
c     0.761905     0.047618     0.000000
c     0.772894     0.860805     0.000000
c     0.783883     0.673992     0.000000
c     0.794872     0.487179     0.000000
c     0.805861     0.300366     0.000000
c     0.816850     0.113553     0.000000
c     0.827839     0.926739     0.000000
c     0.838828     0.739926     0.000000
c     0.849817     0.553113     0.000000
c     0.860806     0.366300     0.000000
c     0.871795     0.179487     0.000000
c     0.882785     0.992673     0.000000
c     0.893774     0.805860     0.000000
c     0.904763     0.619047     0.000000
c     0.915752     0.432234     0.000000
c     0.926741     0.245421     0.000000
c     0.937730     0.058607     0.000000
c     0.948719     0.871794     0.000000
c     0.959708     0.684981     0.000000
c     0.970697     0.498168     0.000000
c     0.981686     0.311355     0.000000
c     0.992675     0.124542     0.000000
c     0.000000     0.000000     0.005000
c     0.010989     0.813187     0.005000
c     0.021978     0.626374     0.005000
c     0.032967     0.439560     0.005000
c     0.043956     0.252747     0.005000
c     0.054945     0.065934     0.005000
c     0.065934     0.879121     0.005000
c     0.076923     0.692308     0.005000
c     0.087912     0.505495     0.005000
c     0.098901     0.318681     0.005000
c     0.109890     0.131868     0.005000
c     0.120879     0.945055     0.005000
c     0.131868     0.758242     0.005000
c     0.142857     0.571429     0.005000
c     0.153846     0.384615     0.005000
c     0.164835     0.197802     0.005000
c     0.175824     0.010989     0.005000
c     0.186813     0.824176     0.005000
c     0.197802     0.637363     0.005000
c     0.208791     0.450549     0.005000
c     0.219780     0.263736     0.005000
c     0.230769     0.076923     0.005000
c     0.241758     0.890110     0.005000
c     0.252747     0.703297     0.005000
c     0.263736     0.516484     0.005000
c     0.274725     0.329670     0.005000
c     0.285714     0.142857     0.005000
c     0.296703     0.956044     0.005000
c     0.307692     0.769231     0.005000
c     0.318681     0.582418     0.005000
c     0.329670     0.395604     0.005000
c     0.340659     0.208791     0.005000
c     0.351648     0.021978     0.005000
c     0.362637     0.835165     0.005000
c     0.373626     0.648352     0.005000
c     0.384615     0.461538     0.005000
c     0.395604     0.274725     0.005000
c     0.406593     0.087912     0.005000
c     0.417582     0.901099     0.005000
c     0.428571     0.714286     0.005000
c     0.439560     0.527473     0.005000
c     0.450549     0.340659     0.005000
c     0.461538     0.153846     0.005000
c     0.472527     0.967033     0.005000
c     0.483516     0.780220     0.005000
c     0.494505     0.593407     0.005000
c     0.505495     0.406593     0.005000
c     0.516484     0.219780     0.005000
c     0.527473     0.032967     0.005000
c     0.538462     0.846154     0.005000
c     0.549451     0.659341     0.005000
c     0.560440     0.472527     0.005000
c     0.571429     0.285714     0.005000
c     0.582418     0.098901     0.005000
c     0.593407     0.912088     0.005000
c     0.604396     0.725275     0.005000
c     0.615385     0.538462     0.005000
c     0.626374     0.351648     0.005000
c     0.637363     0.164835     0.005000
c     0.648352     0.978022     0.005000
c     0.659341     0.791209     0.005000
c     0.670330     0.604396     0.005000
c     0.681319     0.417582     0.005000
c     0.692308     0.230769     0.005000
c     0.703297     0.043956     0.005000
c     0.714286     0.857143     0.005000
c     0.725275     0.670330     0.005000
c     0.736264     0.483516     0.005000
c     0.747253     0.296703     0.005000
c     0.758242     0.109890     0.005000
c     0.769231     0.923077     0.005000
c     0.780220     0.736264     0.005000
c     0.791209     0.549451     0.005000
c     0.802198     0.362637     0.005000
c     0.813187     0.175824     0.005000
c     0.824176     0.989011     0.005000
c     0.835165     0.802198     0.005000
c     0.846154     0.615385     0.005000
c     0.857143     0.428571     0.005000
c     0.868132     0.241758     0.005000
c     0.879121     0.054945     0.005000
c     0.890110     0.868132     0.005000
c     0.901099     0.681319     0.005000
c     0.912088     0.494505     0.005000
c     0.923077     0.307692     0.005000
c     0.934066     0.120879     0.005000
c     0.945055     0.934066     0.005000
c     0.956044     0.747253     0.005000
c     0.967033     0.560440     0.005000
c     0.978022     0.373626     0.005000
c     0.989011     0.186813     0.005000
c     0.003664     0.058607     0.500000
c     0.014657     0.234429     0.500000
c     0.025650     0.410251     0.500000
c     0.036622     0.586083     0.500000
c     0.047615     0.761906     0.500000
c     0.058607     0.937728     0.500000
c     0.069600     0.113550     0.500000
c     0.080593     0.289372     0.500000
c     0.091586     0.465194     0.500000
c     0.102558     0.641027     0.500000
c     0.113550     0.816849     0.500000
c     0.124543     0.992671     0.500000
c     0.135536     0.168493     0.500000
c     0.146529     0.344315     0.500000
c     0.157501     0.520148     0.500000
c     0.168494     0.695970     0.500000
c     0.179486     0.871792     0.500000
c     0.190479     0.047614     0.500000
c     0.201472     0.223436     0.500000
c     0.212465     0.399258     0.500000
c     0.223437     0.575091     0.500000
c     0.234429     0.750913     0.500000
c     0.245422     0.926735     0.500000
c     0.256415     0.102557     0.500000
c     0.267408     0.278379     0.500000
c     0.278400     0.454202     0.500000
c     0.289373     0.630034     0.500000
c     0.300365     0.805856     0.500000
c     0.311358     0.981678     0.500000
c     0.322351     0.157500     0.500000
c     0.333344     0.333323     0.500000
c     0.344316     0.509155     0.500000
c     0.355309     0.684977     0.500000
c     0.366301     0.860799     0.500000
c     0.377294     0.036621     0.500000
c     0.388287     0.212443     0.500000
c     0.399279     0.388266     0.500000
c     0.410252     0.564098     0.500000
c     0.421244     0.739920     0.500000
c     0.432237     0.915742     0.500000
c     0.443230     0.091564     0.500000
c     0.454223     0.267387     0.500000
c     0.465215     0.443209     0.500000
c     0.476188     0.619041     0.500000
c     0.487180     0.794863     0.500000
c     0.498173     0.970685     0.500000
c     0.509155     0.146528     0.500000
c     0.520148     0.322350     0.500000
c     0.531120     0.498183     0.500000
c     0.542113     0.674005     0.500000
c     0.553106     0.849827     0.500000
c     0.564099     0.025649     0.500000
c     0.575091     0.201471     0.500000
c     0.586084     0.377293     0.500000
c     0.597056     0.553126     0.500000
c     0.608049     0.728948     0.500000
c     0.619042     0.904770     0.500000
c     0.630034     0.080592     0.500000
c     0.641027     0.256414     0.500000
c     0.652020     0.432237     0.500000
c     0.662992     0.608069     0.500000
c     0.673985     0.783891     0.500000
c     0.684978     0.959713     0.500000
c     0.695970     0.135535     0.500000
c     0.706963     0.311358     0.500000
c     0.717935     0.487190     0.500000
c     0.728928     0.663012     0.500000
c     0.739921     0.838834     0.500000
c     0.750913     0.014656     0.500000
c     0.761906     0.190479     0.500000
c     0.772899     0.366301     0.500000
c     0.783871     0.542133     0.500000
c     0.794864     0.717955     0.500000
c     0.805857     0.893777     0.500000
c     0.816849     0.069600     0.500000
c     0.827842     0.245422     0.500000
c     0.838835     0.421244     0.500000
c     0.849807     0.597076     0.500000
c     0.860800     0.772898     0.500000
c     0.871792     0.948721     0.500000
c     0.882785     0.124543     0.500000
c     0.893778     0.300365     0.500000
c     0.904750     0.476197     0.500000
c     0.915743     0.652019     0.500000
c     0.926736     0.827842     0.500000
c     0.937728     0.003664     0.500000
c     0.948721     0.179486     0.500000
c     0.959714     0.355308     0.500000
c     0.970686     0.531140     0.500000
c     0.981679     0.706962     0.500000
c     0.992671     0.882785     0.500000
c     0.000000     0.000000     0.505000
c     0.010993     0.175822     0.505000
c     0.021985     0.351644     0.505000
c     0.032958     0.527477     0.505000
c     0.043950     0.703299     0.505000
c     0.054943     0.879121     0.505000
c     0.065936     0.054943     0.505000
c     0.076929     0.230765     0.505000
c     0.087921     0.406587     0.505000
c     0.098894     0.582420     0.505000
c     0.109886     0.758242     0.505000
c     0.120879     0.934064     0.505000
c     0.131872     0.109886     0.505000
c     0.142864     0.285708     0.505000
c     0.153857     0.461531     0.505000
c     0.164829     0.637363     0.505000
c     0.175822     0.813185     0.505000
c     0.186815     0.989007     0.505000
c     0.197808     0.164829     0.505000
c     0.208800     0.340652     0.505000
c     0.219773     0.516484     0.505000
c     0.230765     0.692306     0.505000
c     0.241758     0.868128     0.505000
c     0.252751     0.043950     0.505000
c     0.263743     0.219773     0.505000
c     0.274736     0.395595     0.505000
c     0.285708     0.571427     0.505000
c     0.296701     0.747249     0.505000
c     0.307694     0.923071     0.505000
c     0.318687     0.098894     0.505000
c     0.329679     0.274716     0.505000
c     0.340672     0.450538     0.505000
c     0.351644     0.626370     0.505000
c     0.362637     0.802192     0.505000
c     0.373630     0.978015     0.505000
c     0.384622     0.153837     0.505000
c     0.395615     0.329659     0.505000
c     0.406587     0.505491     0.505000
c     0.417580     0.681313     0.505000
c     0.428573     0.857136     0.505000
c     0.439566     0.032958     0.505000
c     0.450558     0.208780     0.505000
c     0.461551     0.384602     0.505000
c     0.472523     0.560434     0.505000
c     0.483516     0.736257     0.505000
c     0.494509     0.912079     0.505000
c     0.505491     0.087921     0.505000
c     0.516484     0.263743     0.505000
c     0.527477     0.439566     0.505000
c     0.538449     0.615398     0.505000
c     0.549442     0.791220     0.505000
c     0.560434     0.967042     0.505000
c     0.571427     0.142864     0.505000
c     0.582420     0.318687     0.505000
c     0.593392     0.494519     0.505000
c     0.604385     0.670341     0.505000
c     0.615378     0.846163     0.505000
c     0.626370     0.021985     0.505000
c     0.637363     0.197808     0.505000
c     0.648356     0.373630     0.505000
c     0.659328     0.549462     0.505000
c     0.670321     0.725284     0.505000
c     0.681313     0.901106     0.505000
c     0.692306     0.076929     0.505000
c     0.703299     0.252751     0.505000
c     0.714292     0.428573     0.505000
c     0.725264     0.604405     0.505000
c     0.736257     0.780227     0.505000
c     0.747249     0.956050     0.505000
c     0.758242     0.131872     0.505000
c     0.769235     0.307694     0.505000
c     0.780207     0.483526     0.505000
c     0.791200     0.659348     0.505000
c     0.802192     0.835171     0.505000
c     0.813185     0.010993     0.505000
c     0.824178     0.186815     0.505000
c     0.835171     0.362637     0.505000
c     0.846143     0.538469     0.505000
c     0.857136     0.714292     0.505000
c     0.868128     0.890114     0.505000
c     0.879121     0.065936     0.505000
c     0.890114     0.241758     0.505000
c     0.901106     0.417580     0.505000
c     0.912079     0.593413     0.505000
c     0.923071     0.769235     0.505000
c     0.934064     0.945057     0.505000
c     0.945057     0.120879     0.505000
c     0.956050     0.296701     0.505000
c     0.967022     0.472534     0.505000
c     0.978015     0.648356     0.505000
c     0.989007     0.824178     0.505000

K_POINTS automatic
8 8 1 1 1 1

CELL_PARAMETERS bohr
     44.465083        -2.333812  0.000000
     24.253682        37.340986  0.000000
     0.000000         0.000000   12.831239
