&control
 title='crystal',
 prefix='crystal',
 pseudo_dir='.',
 calculation='relax',
 etot_conv_thr=1.0D-5,
 forc_conv_thr=1.0D-4,
/
&system
 ibrav=0,
 nat= 52,
 ntyp= 1,
 ecutwfc=80.0,
 ecutrho=800.0,
 xdm=.true.,
 xdm_a1=0.6512,
 xdm_a2=1.4633,
/
&electrons
 conv_thr = 1d-8
/
&ions
/
&cell
/
ATOMIC_SPECIES
c     12.011 c.UPF

ATOMIC_POSITIONS crystal
c     0.051284     0.820512     0.000000
c     0.128207     0.051281     0.000000
c     0.205130     0.282050     0.000000
c     0.282053     0.512819     0.000000
c     0.358976     0.743588     0.000000
c     0.435899     0.974358     0.000000
c     0.512822     0.205127     0.000000
c     0.589745     0.435896     0.000000
c     0.666668     0.666665     0.000000
c     0.743592     0.897435     0.000000
c     0.820515     0.128204     0.000000
c     0.897438     0.358973     0.000000
c     0.974361     0.589742     0.000000
c     0.000000     0.000000     0.005000
c     0.076923     0.230769     0.005000
c     0.153846     0.461538     0.005000
c     0.230769     0.692308     0.005000
c     0.307692     0.923077     0.005000
c     0.384615     0.153846     0.005000
c     0.461538     0.384615     0.005000
c     0.538462     0.615385     0.005000
c     0.615385     0.846154     0.005000
c     0.692308     0.076923     0.005000
c     0.769231     0.307692     0.005000
c     0.846154     0.538462     0.005000
c     0.923077     0.769231     0.005000
c     0.051268     0.128214     0.500000
c     0.128214     0.820515     0.500000
c     0.205075     0.512859     0.500000
c     0.282021     0.205160     0.500000
c     0.358967     0.897461     0.500000
c     0.435956     0.589677     0.500000
c     0.512817     0.282021     0.500000
c     0.589763     0.974322     0.500000
c     0.666709     0.666623     0.500000
c     0.743570     0.358967     0.500000
c     0.820516     0.051268     0.500000
c     0.897462     0.743569     0.500000
c     0.974322     0.435913     0.500000
c     0.000000     0.000000     0.505000
c     0.076946     0.692301     0.505000
c     0.153807     0.384645     0.505000
c     0.230753     0.076946     0.505000
c     0.307699     0.769247     0.505000
c     0.384560     0.461591     0.505000
c     0.461548     0.153807     0.505000
c     0.538494     0.846108     0.505000
c     0.615355     0.538452     0.505000
c     0.692301     0.230753     0.505000
c     0.769247     0.923054     0.505000
c     0.846193     0.615355     0.505000
c     0.923054     0.307699     0.505000

K_POINTS automatic
8 8 1 1 1 1

CELL_PARAMETERS bohr
     16.169121        -4.667623  0.000000
     12.126841        11.669058  0.000000
     0.000000         0.000000   12.831239
