&control
 title='crystal',
 prefix='crystal',
 pseudo_dir='.',
 calculation='relax',
 etot_conv_thr=1.0D-5,
 forc_conv_thr=1.0D-4,
/
&system
 ibrav=0,
 nat= 76,
 ntyp= 1,
 ecutwfc=80.0,
 ecutrho=800.0,
 xdm=.true.,
 xdm_a1=0.6512,
 xdm_a2=1.4633,
/
&electrons
 conv_thr = 1d-8
/
&ions
/
&cell
/
ATOMIC_SPECIES
c     12.011 c.UPF

ATOMIC_POSITIONS crystal
c     0.017545     0.859648     0.000000
c     0.070177     0.438595     0.000000
c     0.122808     0.017543     0.000000
c     0.175440     0.596490     0.000000
c     0.228072     0.175437     0.000000
c     0.280703     0.754385     0.000000
c     0.333335     0.333332     0.000000
c     0.385966     0.912279     0.000000
c     0.438598     0.491227     0.000000
c     0.491229     0.070174     0.000000
c     0.543861     0.649122     0.000000
c     0.596493     0.228069     0.000000
c     0.649124     0.807016     0.000000
c     0.701756     0.385964     0.000000
c     0.754387     0.964911     0.000000
c     0.807019     0.543858     0.000000
c     0.859651     0.122806     0.000000
c     0.912282     0.701753     0.000000
c     0.964914     0.280701     0.000000
c     0.000000     0.000000     0.005000
c     0.052632     0.578947     0.005000
c     0.105263     0.157895     0.005000
c     0.157895     0.736842     0.005000
c     0.210526     0.315789     0.005000
c     0.263158     0.894737     0.005000
c     0.315789     0.473684     0.005000
c     0.368421     0.052632     0.005000
c     0.421053     0.631579     0.005000
c     0.473684     0.210526     0.005000
c     0.526316     0.789474     0.005000
c     0.578947     0.368421     0.005000
c     0.631579     0.947368     0.005000
c     0.684211     0.526316     0.005000
c     0.736842     0.105263     0.005000
c     0.789474     0.684211     0.005000
c     0.842105     0.263158     0.005000
c     0.894737     0.842105     0.005000
c     0.947368     0.421053     0.005000
c     0.004591     0.647288     0.500000
c     0.051698     0.849493     0.500000
c     0.098806     0.051699     0.500000
c     0.145913     0.253904     0.500000
c     0.193021     0.456110     0.500000
c     0.253904     0.600180     0.500000
c     0.301011     0.802386     0.500000
c     0.348119     0.004591     0.500000
c     0.395226     0.206797     0.500000
c     0.442334     0.409002     0.500000
c     0.503217     0.553073     0.500000
c     0.550324     0.755278     0.500000
c     0.600180     0.145914     0.500000
c     0.647287     0.348119     0.500000
c     0.755278     0.694395     0.500000
c     0.802385     0.896601     0.500000
c     0.849493     0.098806     0.500000
c     0.896600     0.301012     0.500000
c     0.943708     0.503217     0.500000
c     0.000000     0.000000     0.505000
c     0.047108     0.202205     0.505000
c     0.094215     0.404411     0.505000
c     0.155098     0.548482     0.505000
c     0.202205     0.750687     0.505000
c     0.249313     0.952892     0.505000
c     0.296421     0.155098     0.505000
c     0.343528     0.357303     0.505000
c     0.451518     0.703579     0.505000
c     0.498626     0.905785     0.505000
c     0.545734     0.107990     0.505000
c     0.595589     0.498626     0.505000
c     0.656472     0.642697     0.505000
c     0.703579     0.844902     0.505000
c     0.750687     0.047108     0.505000
c     0.797795     0.249313     0.505000
c     0.844902     0.451518     0.505000
c     0.905785     0.595589     0.505000
c     0.952892     0.797795     0.505000

K_POINTS automatic
8 8 1 1 1 1

CELL_PARAMETERS bohr
     20.211401        -2.333812  0.000000
     12.126841        16.336681  0.000000
     0.000000         0.000000   12.831239
