&control
 title='crystal'
 prefix='crystal'
 pseudo_dir='.'
 calculation='relax'
 etot_conv_thr=1.0D-5
 forc_conv_thr=1.0D-4
/
&system
 ibrav=0
 nat = 42
 ntyp= 2
 ecutwfc=80.0
 ecutrho=800.0
 vdw_corr= 'xdm'
/
&electrons
 conv_thr = 1d-8
/
&ions
/
&cell
/
ATOMIC_SPECIES
s     32.06 s.UPF
mo     95.95 mo.UPF

ATOMIC_POSITIONS crystal
s      0.047619     0.190476     0.133082
s      0.190476     0.761905     0.133082
s      0.333333     0.333333     0.133082
s      0.476190     0.904762     0.133082
s      0.619048     0.476190     0.133082
s      0.761905     0.047619     0.133082
s      0.904762     0.619048     0.133082
mo     0.000000     0.000000     0.250000
mo     0.142857     0.571429     0.250000
mo     0.285714     0.142857     0.250000
mo     0.428571     0.714286     0.250000
mo     0.571429     0.285714     0.250000
mo     0.714286     0.857143     0.250000
mo     0.857143     0.428571     0.250000
s      0.047619     0.190476     0.366918
s      0.190476     0.761905     0.366918
s      0.333333     0.333333     0.366918
s      0.476190     0.904762     0.366918
s      0.619048     0.476190     0.366918
s      0.761905     0.047619     0.366918
s      0.904762     0.619048     0.366918
s      0.000000     0.000000     0.633082
s      0.142857     0.285714     0.633082
s      0.285714     0.571429     0.633082
s      0.428571     0.857143     0.633082
s      0.571429     0.142857     0.633082
s      0.714286     0.428571     0.633082
s      0.857143     0.714286     0.633082
mo     0.095238     0.523810     0.750000
mo     0.238095     0.809524     0.750000
mo     0.380952     0.095238     0.750000
mo     0.523810     0.380952     0.750000
mo     0.666667     0.666667     0.750000
mo     0.809524     0.952381     0.750000
mo     0.952381     0.238095     0.750000
s      0.000000     0.000000     0.866918
s      0.142857     0.285714     0.866918
s      0.285714     0.571429     0.866918
s      0.428571     0.857143     0.866918
s      0.571429     0.142857     0.866918
s      0.714286     0.428571     0.866918
s      0.857143     0.714286     0.866918

K_POINTS automatic
8 8 1 1 1 1

CELL_PARAMETERS bohr
      10.448518451006   12.064909880642    0.000000000000
      15.672777676509   -3.016227470161    0.000000000000
       0.000000000000    0.000000000000   25.281309854931
