&control
 title='crystal'
 prefix='crystal'
 pseudo_dir='.'
 calculation='relax'
 etot_conv_thr=1.0D-5
 forc_conv_thr=1.0D-4
/
&system
 ibrav=0
 nat = 28
 ntyp= 1
 ecutwfc=80.0
 ecutrho=800.0
 vdw_corr= 'xdm'
/
&electrons
 conv_thr = 1d-8
/
&ions
/
&cell
/
ATOMIC_SPECIES
p     30.973761998 p.UPF

ATOMIC_POSITIONS crystal
p      0.047617     0.190479     0.481686
p      0.190474     0.761907     0.481686
p      0.333331     0.333336     0.481686
p      0.476189     0.904764     0.481686
p      0.619046     0.476193     0.481686
p      0.761903     0.047621     0.481686
p      0.904760     0.619050     0.481686
p      0.000000     0.000000     0.510567
p      0.142857     0.571429     0.510567
p      0.285714     0.142857     0.510567
p      0.428571     0.714286     0.510567
p      0.571429     0.285714     0.510567
p      0.714286     0.857143     0.510567
p      0.857143     0.428571     0.510567
p      0.047621     0.761903     0.582451
p      0.190479     0.047617     0.582451
p      0.333336     0.333331     0.582451
p      0.476193     0.619046     0.582451
p      0.619050     0.904760     0.582451
p      0.761907     0.190474     0.582451
p      0.904764     0.476189     0.582451
p      0.000000     0.000000     0.611276
p      0.142857     0.285714     0.611276
p      0.285714     0.571429     0.611276
p      0.428571     0.857143     0.611276
p      0.571429     0.142857     0.611276
p      0.714286     0.428571     0.611276
p      0.857143     0.714286     0.611276

K_POINTS automatic
8 8 1 1 1 1

CELL_PARAMETERS bohr
      10.899449326877   12.585600005782    0.000000000000
      16.349173990316   -3.146400001446    0.000000000000
       0.000000000000    0.000000000000   80.000000019790
