&control
 title='crystal',
 prefix='crystal',
 pseudo_dir='.',
 calculation='relax',
 etot_conv_thr=1.0D-5,
 forc_conv_thr=1.0D-4,
/
&system
 ibrav=0,
 nat= 124,
 ntyp= 1,
 ecutwfc=80.0,
 ecutrho=800.0,
 xdm=.true.,
 xdm_a1=0.6512,
 xdm_a2=1.4633,
/
&electrons
 conv_thr = 1d-8
/
&ions
/
&cell
/
ATOMIC_SPECIES
p     30.973761998 p.UPF

ATOMIC_POSITIONS crystal
p     0.010754     0.720429     0.481686
p     0.043012     0.881720     0.481686
p     0.075270     0.043010     0.481686
p     0.107528     0.204300     0.481686
p     0.139786     0.365591     0.481686
p     0.172044     0.526881     0.481686
p     0.204302     0.688171     0.481686
p     0.236560     0.849462     0.481686
p     0.268818     0.010752     0.481686
p     0.301076     0.172042     0.481686
p     0.333335     0.333333     0.481686
p     0.365593     0.494623     0.481686
p     0.397851     0.655913     0.481686
p     0.430109     0.817204     0.481686
p     0.462367     0.978494     0.481686
p     0.494625     0.139784     0.481686
p     0.526883     0.301075     0.481686
p     0.559141     0.462365     0.481686
p     0.591399     0.623655     0.481686
p     0.623657     0.784945     0.481686
p     0.655915     0.946236     0.481686
p     0.688173     0.107526     0.481686
p     0.720431     0.268816     0.481686
p     0.752689     0.430107     0.481686
p     0.784947     0.591397     0.481686
p     0.817205     0.752687     0.481686
p     0.849464     0.913978     0.481686
p     0.881722     0.075268     0.481686
p     0.913980     0.236558     0.481686
p     0.946238     0.397849     0.481686
p     0.978496     0.559139     0.481686
p     0.000000     0.000000     0.510567
p     0.032258     0.161290     0.510567
p     0.064516     0.322581     0.510567
p     0.096774     0.483871     0.510567
p     0.129032     0.645161     0.510567
p     0.161290     0.806452     0.510567
p     0.193548     0.967742     0.510567
p     0.225806     0.129032     0.510567
p     0.258065     0.290323     0.510567
p     0.290323     0.451613     0.510567
p     0.322581     0.612903     0.510567
p     0.354839     0.774194     0.510567
p     0.387097     0.935484     0.510567
p     0.419355     0.096774     0.510567
p     0.451613     0.258065     0.510567
p     0.483871     0.419355     0.510567
p     0.516129     0.580645     0.510567
p     0.548387     0.741935     0.510567
p     0.580645     0.903226     0.510567
p     0.612903     0.064516     0.510567
p     0.645161     0.225806     0.510567
p     0.677419     0.387097     0.510567
p     0.709677     0.548387     0.510567
p     0.741935     0.709677     0.510567
p     0.774194     0.870968     0.510567
p     0.806452     0.032258     0.510567
p     0.838710     0.193548     0.510567
p     0.870968     0.354839     0.510567
p     0.903226     0.516129     0.510567
p     0.935484     0.677419     0.510567
p     0.967742     0.838710     0.510567
p     0.010733     0.268828     0.582451
p     0.043003     0.075276     0.582451
p     0.075274     0.881723     0.582451
p     0.107544     0.688170     0.582451
p     0.139745     0.494652     0.582451
p     0.172015     0.301099     0.582451
p     0.204286     0.107546     0.582451
p     0.236556     0.913993     0.582451
p     0.268827     0.720440     0.582451
p     0.301027     0.526922     0.582451
p     0.333298     0.333369     0.582451
p     0.365568     0.139816     0.582451
p     0.397839     0.946264     0.582451
p     0.430109     0.752711     0.582451
p     0.462414     0.559088     0.582451
p     0.494615     0.365570     0.582451
p     0.526885     0.172017     0.582451
p     0.559156     0.978464     0.582451
p     0.591426     0.784912     0.582451
p     0.623697     0.591359     0.582451
p     0.655898     0.397841     0.582451
p     0.688168     0.204288     0.582451
p     0.720438     0.010735     0.582451
p     0.752709     0.817182     0.582451
p     0.784979     0.623629     0.582451
p     0.817180     0.430111     0.582451
p     0.849450     0.236558     0.582451
p     0.881721     0.043005     0.582451
p     0.913991     0.849452     0.582451
p     0.946262     0.655899     0.582451
p     0.978462     0.462381     0.582451
p     0.000000     0.000000     0.611276
p     0.032270     0.806447     0.611276
p     0.064541     0.612894     0.611276
p     0.096742     0.419376     0.611276
p     0.129012     0.225823     0.611276
p     0.161282     0.032270     0.611276
p     0.193553     0.838718     0.611276
p     0.225823     0.645165     0.611276
p     0.258024     0.451647     0.611276
p     0.290295     0.258094     0.611276
p     0.322565     0.064541     0.611276
p     0.354835     0.870988     0.611276
p     0.387106     0.677435     0.611276
p     0.419307     0.483917     0.611276
p     0.451612     0.290295     0.611276
p     0.483882     0.096742     0.611276
p     0.516153     0.903189     0.611276
p     0.548423     0.709636     0.611276
p     0.580624     0.516118     0.611276
p     0.612894     0.322565     0.611276
p     0.645165     0.129012     0.611276
p     0.677435     0.935459     0.611276
p     0.709705     0.741906     0.611276
p     0.741976     0.548353     0.611276
p     0.774177     0.354835     0.611276
p     0.806447     0.161282     0.611276
p     0.838718     0.967730     0.611276
p     0.870988     0.774177     0.611276
p     0.903258     0.580624     0.611276
p     0.935459     0.387106     0.611276
p     0.967730     0.193553     0.611276

K_POINTS automatic
8 8 1 1 1 1

CELL_PARAMETERS bohr
     32.698348        -12.585600  0.000000
     27.248623        22.024800   0.000000
     0.000000         0.000000    80.000000
