&control
 title='crystal',
 prefix='crystal',
 pseudo_dir='.',
 calculation='relax',
 etot_conv_thr=1.0D-5,
 forc_conv_thr=1.0D-4,
/
&system
 ibrav=0,
 nat= 148,
 ntyp= 1,
 ecutwfc=80.0,
 ecutrho=800.0,
 xdm=.true.,
 xdm_a1=0.6512,
 xdm_a2=1.4633,
/
&electrons
 conv_thr = 1d-8
/
&ions
/
&cell
/
ATOMIC_SPECIES
p     30.973761998 p.UPF

ATOMIC_POSITIONS crystal
p     0.009010     0.900900     0.481686
p     0.036037     0.603603     0.481686
p     0.063064     0.306305     0.481686
p     0.090091     0.009008     0.481686
p     0.117118     0.711711     0.481686
p     0.144145     0.414414     0.481686
p     0.171172     0.117116     0.481686
p     0.198199     0.819819     0.481686
p     0.225226     0.522522     0.481686
p     0.252253     0.225224     0.481686
p     0.279280     0.927927     0.481686
p     0.306307     0.630630     0.481686
p     0.333334     0.333332     0.481686
p     0.360361     0.036035     0.481686
p     0.387388     0.738738     0.481686
p     0.414415     0.441441     0.481686
p     0.441442     0.144143     0.481686
p     0.468469     0.846846     0.481686
p     0.495496     0.549549     0.481686
p     0.522524     0.252251     0.481686
p     0.549551     0.954954     0.481686
p     0.576578     0.657657     0.481686
p     0.603605     0.360359     0.481686
p     0.630632     0.063062     0.481686
p     0.657659     0.765765     0.481686
p     0.684686     0.468468     0.481686
p     0.711713     0.171170     0.481686
p     0.738740     0.873873     0.481686
p     0.765767     0.576576     0.481686
p     0.792794     0.279278     0.481686
p     0.819821     0.981981     0.481686
p     0.846848     0.684684     0.481686
p     0.873875     0.387386     0.481686
p     0.900902     0.090089     0.481686
p     0.927929     0.792792     0.481686
p     0.954956     0.495495     0.481686
p     0.981983     0.198197     0.481686
p     0.000000     0.000000     0.510567
p     0.027027     0.702703     0.510567
p     0.054054     0.405405     0.510567
p     0.081081     0.108108     0.510567
p     0.108108     0.810811     0.510567
p     0.135135     0.513514     0.510567
p     0.162162     0.216216     0.510567
p     0.189189     0.918919     0.510567
p     0.216216     0.621622     0.510567
p     0.243243     0.324324     0.510567
p     0.270270     0.027027     0.510567
p     0.297297     0.729730     0.510567
p     0.324324     0.432432     0.510567
p     0.351351     0.135135     0.510567
p     0.378378     0.837838     0.510567
p     0.405405     0.540541     0.510567
p     0.432432     0.243243     0.510567
p     0.459459     0.945946     0.510567
p     0.486486     0.648649     0.510567
p     0.513514     0.351351     0.510567
p     0.540541     0.054054     0.510567
p     0.567568     0.756757     0.510567
p     0.594595     0.459459     0.510567
p     0.621622     0.162162     0.510567
p     0.648649     0.864865     0.510567
p     0.675676     0.567568     0.510567
p     0.702703     0.270270     0.510567
p     0.729730     0.972973     0.510567
p     0.756757     0.675676     0.510567
p     0.783784     0.378378     0.510567
p     0.810811     0.081081     0.510567
p     0.837838     0.783784     0.510567
p     0.864865     0.486486     0.510567
p     0.891892     0.189189     0.510567
p     0.918919     0.891892     0.510567
p     0.945946     0.594595     0.510567
p     0.972973     0.297297     0.510567
p     0.009008     0.090091     0.582451
p     0.036035     0.360361     0.582451
p     0.063062     0.630632     0.582451
p     0.090089     0.900902     0.582451
p     0.117116     0.171172     0.582451
p     0.144143     0.441442     0.582451
p     0.171170     0.711713     0.582451
p     0.198197     0.981983     0.582451
p     0.225224     0.252253     0.582451
p     0.252251     0.522524     0.582451
p     0.279278     0.792794     0.582451
p     0.306305     0.063064     0.582451
p     0.333332     0.333334     0.582451
p     0.360359     0.603605     0.582451
p     0.387386     0.873875     0.582451
p     0.414413     0.144145     0.582451
p     0.441440     0.414416     0.582451
p     0.468468     0.684686     0.582451
p     0.495495     0.954956     0.582451
p     0.522522     0.225226     0.582451
p     0.549549     0.495496     0.582451
p     0.576576     0.765767     0.582451
p     0.603603     0.036037     0.582451
p     0.630630     0.306307     0.582451
p     0.657657     0.576577     0.582451
p     0.684684     0.846848     0.582451
p     0.711711     0.117118     0.582451
p     0.738738     0.387388     0.582451
p     0.765765     0.657659     0.582451
p     0.792792     0.927929     0.582451
p     0.819819     0.198199     0.582451
p     0.846846     0.468469     0.582451
p     0.873873     0.738740     0.582451
p     0.900900     0.009010     0.582451
p     0.927927     0.279280     0.582451
p     0.954954     0.549550     0.582451
p     0.981981     0.819821     0.582451
p     0.000000     0.000000     0.611276
p     0.027027     0.270270     0.611276
p     0.054054     0.540541     0.611276
p     0.081081     0.810811     0.611276
p     0.108108     0.081081     0.611276
p     0.135135     0.351351     0.611276
p     0.162162     0.621622     0.611276
p     0.189189     0.891892     0.611276
p     0.216216     0.162162     0.611276
p     0.243243     0.432433     0.611276
p     0.270270     0.702703     0.611276
p     0.297297     0.972973     0.611276
p     0.324324     0.243243     0.611276
p     0.351351     0.513514     0.611276
p     0.378378     0.783784     0.611276
p     0.405405     0.054054     0.611276
p     0.432432     0.324324     0.611276
p     0.459459     0.594595     0.611276
p     0.486486     0.864865     0.611276
p     0.513514     0.135135     0.611276
p     0.540541     0.405405     0.611276
p     0.567568     0.675676     0.611276
p     0.594595     0.945946     0.611276
p     0.621622     0.216216     0.611276
p     0.648649     0.486486     0.611276
p     0.675676     0.756757     0.611276
p     0.702703     0.027027     0.611276
p     0.729730     0.297297     0.611276
p     0.756757     0.567567     0.611276
p     0.783784     0.837838     0.611276
p     0.810811     0.108108     0.611276
p     0.837838     0.378378     0.611276
p     0.864865     0.648649     0.611276
p     0.891892     0.918919     0.611276
p     0.918919     0.189189     0.611276
p     0.945946     0.459459     0.611276
p     0.972973     0.729730     0.611276

K_POINTS automatic
8 8 1 1 1 1

CELL_PARAMETERS bohr
     38.148073        -3.146400  0.000000
     21.798899        31.464000  0.000000
     0.000000         0.000000   80.000000
