&control
 title='crystal',
 prefix='crystal',
 pseudo_dir='.',
 calculation='relax',
 etot_conv_thr=1.0D-5,
 forc_conv_thr=1.0D-4,
/
&system
 ibrav=0,
 nat= 172,
 ntyp= 1,
 ecutwfc=80.0,
 ecutrho=800.0,
 xdm=.true.,
 xdm_a1=0.6512,
 xdm_a2=1.4633,
/
&electrons
 conv_thr = 1d-8
/
&ions
/
&cell
/
ATOMIC_SPECIES
p     30.973761998 p.UPF

ATOMIC_POSITIONS crystal
p     0.015505     0.759689     0.481686
p     0.038761     0.899224     0.481686
p     0.062017     0.038759     0.481686
p     0.085272     0.178294     0.481686
p     0.108528     0.317829     0.481686
p     0.131784     0.457364     0.481686
p     0.155040     0.596899     0.481686
p     0.178296     0.736433     0.481686
p     0.201551     0.875968     0.481686
p     0.224807     0.015503     0.481686
p     0.248063     0.155038     0.481686
p     0.271319     0.294573     0.481686
p     0.294575     0.434108     0.481686
p     0.317830     0.573643     0.481686
p     0.341086     0.713178     0.481686
p     0.364342     0.852713     0.481686
p     0.387598     0.992247     0.481686
p     0.410854     0.131782     0.481686
p     0.434110     0.271317     0.481686
p     0.457365     0.410852     0.481686
p     0.480621     0.550387     0.481686
p     0.503877     0.689922     0.481686
p     0.527133     0.829457     0.481686
p     0.550389     0.968992     0.481686
p     0.573644     0.108527     0.481686
p     0.596900     0.248061     0.481686
p     0.620156     0.387596     0.481686
p     0.643412     0.527131     0.481686
p     0.666668     0.666666     0.481686
p     0.689923     0.806201     0.481686
p     0.713179     0.945736     0.481686
p     0.736435     0.085271     0.481686
p     0.759691     0.224806     0.481686
p     0.782947     0.364340     0.481686
p     0.806203     0.503875     0.481686
p     0.829458     0.643410     0.481686
p     0.852714     0.782945     0.481686
p     0.875970     0.922480     0.481686
p     0.899226     0.062015     0.481686
p     0.922482     0.201550     0.481686
p     0.945737     0.341085     0.481686
p     0.968993     0.480620     0.481686
p     0.992249     0.620154     0.481686
p     0.000000     0.000000     0.510567
p     0.023256     0.139535     0.510567
p     0.046512     0.279070     0.510567
p     0.069767     0.418605     0.510567
p     0.093023     0.558140     0.510567
p     0.116279     0.697674     0.510567
p     0.139535     0.837209     0.510567
p     0.162791     0.976744     0.510567
p     0.186047     0.116279     0.510567
p     0.209302     0.255814     0.510567
p     0.232558     0.395349     0.510567
p     0.255814     0.534884     0.510567
p     0.279070     0.674419     0.510567
p     0.302326     0.813953     0.510567
p     0.325581     0.953488     0.510567
p     0.348837     0.093023     0.510567
p     0.372093     0.232558     0.510567
p     0.395349     0.372093     0.510567
p     0.418605     0.511628     0.510567
p     0.441860     0.651163     0.510567
p     0.465116     0.790698     0.510567
p     0.488372     0.930233     0.510567
p     0.511628     0.069767     0.510567
p     0.534884     0.209302     0.510567
p     0.558140     0.348837     0.510567
p     0.581395     0.488372     0.510567
p     0.604651     0.627907     0.510567
p     0.627907     0.767442     0.510567
p     0.651163     0.906977     0.510567
p     0.674419     0.046512     0.510567
p     0.697674     0.186047     0.510567
p     0.720930     0.325581     0.510567
p     0.744186     0.465116     0.510567
p     0.767442     0.604651     0.510567
p     0.790698     0.744186     0.510567
p     0.813953     0.883721     0.510567
p     0.837209     0.023256     0.510567
p     0.860465     0.162791     0.510567
p     0.883721     0.302326     0.510567
p     0.906977     0.441860     0.510567
p     0.930233     0.581395     0.510567
p     0.953488     0.720930     0.510567
p     0.976744     0.860465     0.510567
p     0.015495     0.224812     0.582451
p     0.038756     0.062019     0.582451
p     0.062017     0.899226     0.582451
p     0.085279     0.736433     0.582451
p     0.108540     0.573641     0.582451
p     0.131765     0.410866     0.582451
p     0.155026     0.248073     0.582451
p     0.178288     0.085280     0.582451
p     0.201549     0.922488     0.582451
p     0.224810     0.759695     0.582451
p     0.248072     0.596902     0.582451
p     0.271296     0.434127     0.582451
p     0.294558     0.271335     0.582451
p     0.317819     0.108542     0.582451
p     0.341080     0.945749     0.582451
p     0.364342     0.782956     0.582451
p     0.387603     0.620163     0.582451
p     0.410864     0.457370     0.582451
p     0.434089     0.294596     0.582451
p     0.457350     0.131803     0.582451
p     0.480612     0.969010     0.582451
p     0.503873     0.806217     0.582451
p     0.527153     0.643388     0.582451
p     0.550414     0.480595     0.582451
p     0.573639     0.317821     0.582451
p     0.596900     0.155028     0.582451
p     0.620162     0.992235     0.582451
p     0.643423     0.829442     0.582451
p     0.666684     0.666649     0.582451
p     0.689946     0.503856     0.582451
p     0.713170     0.341082     0.582451
p     0.736432     0.178289     0.582451
p     0.759693     0.015496     0.582451
p     0.782955     0.852704     0.582451
p     0.806216     0.689911     0.582451
p     0.829477     0.527118     0.582451
p     0.852702     0.364343     0.582451
p     0.875963     0.201551     0.582451
p     0.899225     0.038758     0.582451
p     0.922486     0.875965     0.582451
p     0.945747     0.713172     0.582451
p     0.969009     0.550379     0.582451
p     0.992233     0.387605     0.582451
p     0.000000     0.000000     0.611276
p     0.023261     0.837207     0.611276
p     0.046523     0.674414     0.611276
p     0.069784     0.511622     0.611276
p     0.093009     0.348847     0.611276
p     0.116270     0.186054     0.611276
p     0.139531     0.023261     0.611276
p     0.162793     0.860469     0.611276
p     0.186054     0.697676     0.611276
p     0.209316     0.534883     0.611276
p     0.232540     0.372108     0.611276
p     0.255802     0.209316     0.611276
p     0.279063     0.046523     0.611276
p     0.302324     0.883730     0.611276
p     0.325586     0.720937     0.611276
p     0.348847     0.558144     0.611276
p     0.372072     0.395370     0.611276
p     0.395333     0.232577     0.611276
p     0.418594     0.069784     0.611276
p     0.441856     0.906991     0.611276
p     0.465117     0.744198     0.611276
p     0.488378     0.581406     0.611276
p     0.511603     0.418631     0.611276
p     0.534883     0.255802     0.611276
p     0.558144     0.093009     0.611276
p     0.581406     0.930216     0.611276
p     0.604667     0.767423     0.611276
p     0.627928     0.604630     0.611276
p     0.651153     0.441856     0.611276
p     0.674414     0.279063     0.611276
p     0.697676     0.116270     0.611276
p     0.720937     0.953477     0.611276
p     0.744198     0.790684     0.611276
p     0.767460     0.627892     0.611276
p     0.790721     0.465099     0.611276
p     0.813946     0.302324     0.611276
p     0.837207     0.139531     0.611276
p     0.860469     0.976739     0.611276
p     0.883730     0.813946     0.611276
p     0.906991     0.651153     0.611276
p     0.930253     0.488360     0.611276
p     0.953477     0.325586     0.611276
p     0.976739     0.162793     0.611276

K_POINTS automatic
8 8 1 1 1 1

CELL_PARAMETERS bohr
     38.148073        -15.732000  0.000000
     32.698348        25.171200   0.000000
     0.000000         0.000000    80.000000
