&control
 title='crystal',
 prefix='crystal',
 pseudo_dir='.',
 calculation='relax',
 etot_conv_thr=1.0D-5,
 forc_conv_thr=1.0D-4,
/
&system
 ibrav=0,
 nat= 196,
 ntyp= 1,
 ecutwfc=80.0,
 ecutrho=800.0,
 xdm=.true.,
 xdm_a1=0.6512,
 xdm_a2=1.4633,
/
&electrons
 conv_thr = 1d-8
/
&ions
/
&cell
/
ATOMIC_SPECIES
p     30.973761998 p.UPF

ATOMIC_POSITIONS crystal
p     0.013606     0.911564     0.481686
p     0.034014     0.278911     0.481686
p     0.054423     0.646258     0.481686
p     0.074831     0.013605     0.481686
p     0.095239     0.380952     0.481686
p     0.115647     0.748299     0.481686
p     0.136055     0.115646     0.481686
p     0.156463     0.482992     0.481686
p     0.176872     0.850339     0.481686
p     0.197280     0.217686     0.481686
p     0.217688     0.585033     0.481686
p     0.238096     0.952380     0.481686
p     0.258504     0.319727     0.481686
p     0.278912     0.687074     0.481686
p     0.299321     0.054421     0.481686
p     0.319729     0.421768     0.481686
p     0.340137     0.789115     0.481686
p     0.360545     0.156462     0.481686
p     0.380953     0.523809     0.481686
p     0.401361     0.891156     0.481686
p     0.421770     0.258503     0.481686
p     0.442178     0.625850     0.481686
p     0.462586     0.993197     0.481686
p     0.482994     0.360543     0.481686
p     0.503402     0.727890     0.481686
p     0.523810     0.095237     0.481686
p     0.544219     0.462584     0.481686
p     0.564627     0.829931     0.481686
p     0.585035     0.197278     0.481686
p     0.605443     0.564625     0.481686
p     0.625851     0.931972     0.481686
p     0.646259     0.299319     0.481686
p     0.666668     0.666666     0.481686
p     0.687076     0.034013     0.481686
p     0.707484     0.401360     0.481686
p     0.727892     0.768707     0.481686
p     0.748300     0.136054     0.481686
p     0.768708     0.503401     0.481686
p     0.789117     0.870748     0.481686
p     0.809525     0.238094     0.481686
p     0.829933     0.605441     0.481686
p     0.850341     0.972788     0.481686
p     0.870749     0.340135     0.481686
p     0.891157     0.707482     0.481686
p     0.911566     0.074829     0.481686
p     0.931974     0.442176     0.481686
p     0.952382     0.809523     0.481686
p     0.972790     0.176870     0.481686
p     0.993198     0.544217     0.481686
p     0.000000     0.000000     0.510567
p     0.020408     0.367347     0.510567
p     0.040816     0.734694     0.510567
p     0.061224     0.102041     0.510567
p     0.081633     0.469388     0.510567
p     0.102041     0.836735     0.510567
p     0.122449     0.204082     0.510567
p     0.142857     0.571429     0.510567
p     0.163265     0.938776     0.510567
p     0.183673     0.306122     0.510567
p     0.204082     0.673469     0.510567
p     0.224490     0.040816     0.510567
p     0.244898     0.408163     0.510567
p     0.265306     0.775510     0.510567
p     0.285714     0.142857     0.510567
p     0.306122     0.510204     0.510567
p     0.326531     0.877551     0.510567
p     0.346939     0.244898     0.510567
p     0.367347     0.612245     0.510567
p     0.387755     0.979592     0.510567
p     0.408163     0.346939     0.510567
p     0.428571     0.714286     0.510567
p     0.448980     0.081633     0.510567
p     0.469388     0.448980     0.510567
p     0.489796     0.816327     0.510567
p     0.510204     0.183673     0.510567
p     0.530612     0.551020     0.510567
p     0.551020     0.918367     0.510567
p     0.571429     0.285714     0.510567
p     0.591837     0.653061     0.510567
p     0.612245     0.020408     0.510567
p     0.632653     0.387755     0.510567
p     0.653061     0.755102     0.510567
p     0.673469     0.122449     0.510567
p     0.693878     0.489796     0.510567
p     0.714286     0.857143     0.510567
p     0.734694     0.224490     0.510567
p     0.755102     0.591837     0.510567
p     0.775510     0.959184     0.510567
p     0.795918     0.326531     0.510567
p     0.816327     0.693878     0.510567
p     0.836735     0.061224     0.510567
p     0.857143     0.428571     0.510567
p     0.877551     0.795918     0.510567
p     0.897959     0.163265     0.510567
p     0.918367     0.530612     0.510567
p     0.938776     0.897959     0.510567
p     0.959184     0.265306     0.510567
p     0.979592     0.632653     0.510567
p     0.013611     0.074827     0.582451
p     0.033992     0.687085     0.582451
p     0.054445     0.299306     0.582451
p     0.074826     0.911563     0.582451
p     0.095279     0.523785     0.582451
p     0.115659     0.136042     0.582451
p     0.136040     0.748299     0.582451
p     0.156493     0.360521     0.582451
p     0.176874     0.972778     0.582451
p     0.197255     0.585036     0.582451
p     0.217708     0.197257     0.582451
p     0.238089     0.809514     0.582451
p     0.258542     0.421736     0.582451
p     0.278923     0.033993     0.582451
p     0.299304     0.646251     0.582451
p     0.319757     0.258472     0.582451
p     0.340138     0.870729     0.582451
p     0.360591     0.482951     0.582451
p     0.380972     0.095208     0.582451
p     0.401353     0.707465     0.582451
p     0.421806     0.319687     0.582451
p     0.442187     0.931944     0.582451
p     0.462532     0.544274     0.582451
p     0.482985     0.156495     0.582451
p     0.503366     0.768753     0.582451
p     0.523819     0.380974     0.582451
p     0.544200     0.993231     0.582451
p     0.564581     0.605489     0.582451
p     0.585034     0.217710     0.582451
p     0.605415     0.829967     0.582451
p     0.625868     0.442189     0.582451
p     0.646249     0.054446     0.582451
p     0.666630     0.666704     0.582451
p     0.687083     0.278925     0.582451
p     0.707464     0.891182     0.582451
p     0.727917     0.503404     0.582451
p     0.748298     0.115661     0.582451
p     0.768679     0.727919     0.582451
p     0.789132     0.340140     0.582451
p     0.809513     0.952397     0.582451
p     0.829894     0.564655     0.582451
p     0.850347     0.176876     0.582451
p     0.870728     0.789133     0.582451
p     0.891181     0.401355     0.582451
p     0.911562     0.013612     0.582451
p     0.931943     0.625870     0.582451
p     0.952396     0.238091     0.582451
p     0.972777     0.850348     0.582451
p     0.993230     0.462570     0.582451
p     0.000000     0.000000     0.611276
p     0.020381     0.612257     0.611276
p     0.040834     0.224479     0.611276
p     0.061215     0.836736     0.611276
p     0.081668     0.448958     0.611276
p     0.102049     0.061215     0.611276
p     0.122430     0.673472     0.611276
p     0.142883     0.285694     0.611276
p     0.163264     0.897951     0.611276
p     0.183717     0.510172     0.611276
p     0.204098     0.122430     0.611276
p     0.224479     0.734687     0.611276
p     0.244932     0.346909     0.611276
p     0.265313     0.959166     0.611276
p     0.285694     0.571423     0.611276
p     0.306147     0.183645     0.611276
p     0.326528     0.795902     0.611276
p     0.346981     0.408124     0.611276
p     0.367362     0.020381     0.611276
p     0.387743     0.632638     0.611276
p     0.408196     0.244860     0.611276
p     0.428577     0.857117     0.611276
p     0.449030     0.469338     0.611276
p     0.469375     0.081668     0.611276
p     0.489755     0.693925     0.611276
p     0.510208     0.306147     0.611276
p     0.530589     0.918404     0.611276
p     0.551042     0.530625     0.611276
p     0.571423     0.142883     0.611276
p     0.591804     0.755140     0.611276
p     0.612257     0.367362     0.611276
p     0.632638     0.979619     0.611276
p     0.653019     0.591876     0.611276
p     0.673472     0.204098     0.611276
p     0.693853     0.816355     0.611276
p     0.714306     0.428577     0.611276
p     0.734687     0.040834     0.611276
p     0.755068     0.653091     0.611276
p     0.775521     0.265313     0.611276
p     0.795902     0.877570     0.611276
p     0.816355     0.489792     0.611276
p     0.836736     0.102049     0.611276
p     0.857117     0.714306     0.611276
p     0.877570     0.326528     0.611276
p     0.897951     0.938785     0.611276
p     0.918332     0.551042     0.611276
p     0.938785     0.163264     0.611276
p     0.959166     0.775521     0.611276
p     0.979619     0.387743     0.611276

K_POINTS automatic
8 8 1 1 1 1

CELL_PARAMETERS bohr
     43.597797        -6.292800  0.000000
     27.248623        34.610400  0.000000
     0.000000         0.000000   80.000000
