&control
 title='crystal',
 prefix='crystal',
 pseudo_dir='.',
 calculation='relax',
 etot_conv_thr=1.0D-5,
 forc_conv_thr=1.0D-4,
/
&system
 ibrav=0,
 nat= 244,
 ntyp= 1,
 ecutwfc=80.0,
 ecutrho=800.0,
 xdm=.true.,
 xdm_a1=0.6512,
 xdm_a2=1.4633,
/
&electrons
 conv_thr = 1d-8
/
&ions
/
&cell
/
ATOMIC_SPECIES
p     30.973761998 p.UPF

ATOMIC_POSITIONS crystal
p     0.005465     0.923497     0.481686
p     0.021859     0.693988     0.481686
p     0.038252     0.464480     0.481686
p     0.054646     0.234972     0.481686
p     0.071039     0.005464     0.481686
p     0.087432     0.775956     0.481686
p     0.103826     0.546447     0.481686
p     0.120219     0.316939     0.481686
p     0.136613     0.087431     0.481686
p     0.153006     0.857923     0.481686
p     0.169400     0.628415     0.481686
p     0.185793     0.398906     0.481686
p     0.202187     0.169398     0.481686
p     0.218580     0.939890     0.481686
p     0.234973     0.710382     0.481686
p     0.251367     0.480874     0.481686
p     0.267760     0.251365     0.481686
p     0.284154     0.021857     0.481686
p     0.300547     0.792349     0.481686
p     0.316941     0.562841     0.481686
p     0.333334     0.333333     0.481686
p     0.349728     0.103824     0.481686
p     0.366121     0.874316     0.481686
p     0.382514     0.644808     0.481686
p     0.398908     0.415300     0.481686
p     0.415301     0.185792     0.481686
p     0.431695     0.956283     0.481686
p     0.448088     0.726775     0.481686
p     0.464482     0.497267     0.481686
p     0.480875     0.267759     0.481686
p     0.497269     0.038251     0.481686
p     0.513662     0.808742     0.481686
p     0.530055     0.579234     0.481686
p     0.546449     0.349726     0.481686
p     0.562842     0.120218     0.481686
p     0.579236     0.890710     0.481686
p     0.595629     0.661201     0.481686
p     0.612023     0.431693     0.481686
p     0.628416     0.202185     0.481686
p     0.644810     0.972677     0.481686
p     0.661203     0.743169     0.481686
p     0.677596     0.513660     0.481686
p     0.693990     0.284152     0.481686
p     0.710383     0.054644     0.481686
p     0.726777     0.825136     0.481686
p     0.743170     0.595628     0.481686
p     0.759564     0.366120     0.481686
p     0.775957     0.136611     0.481686
p     0.792350     0.907103     0.481686
p     0.808744     0.677595     0.481686
p     0.825137     0.448087     0.481686
p     0.841531     0.218579     0.481686
p     0.857924     0.989070     0.481686
p     0.874318     0.759562     0.481686
p     0.890711     0.530054     0.481686
p     0.907105     0.300546     0.481686
p     0.923498     0.071038     0.481686
p     0.939891     0.841529     0.481686
p     0.956285     0.612021     0.481686
p     0.972678     0.382513     0.481686
p     0.989072     0.153005     0.481686
p     0.000000     0.000000     0.510567
p     0.016393     0.770492     0.510567
p     0.032787     0.540984     0.510567
p     0.049180     0.311475     0.510567
p     0.065574     0.081967     0.510567
p     0.081967     0.852459     0.510567
p     0.098361     0.622951     0.510567
p     0.114754     0.393443     0.510567
p     0.131148     0.163934     0.510567
p     0.147541     0.934426     0.510567
p     0.163934     0.704918     0.510567
p     0.180328     0.475410     0.510567
p     0.196721     0.245902     0.510567
p     0.213115     0.016393     0.510567
p     0.229508     0.786885     0.510567
p     0.245902     0.557377     0.510567
p     0.262295     0.327869     0.510567
p     0.278689     0.098361     0.510567
p     0.295082     0.868852     0.510567
p     0.311475     0.639344     0.510567
p     0.327869     0.409836     0.510567
p     0.344262     0.180328     0.510567
p     0.360656     0.950820     0.510567
p     0.377049     0.721311     0.510567
p     0.393443     0.491803     0.510567
p     0.409836     0.262295     0.510567
p     0.426230     0.032787     0.510567
p     0.442623     0.803279     0.510567
p     0.459016     0.573770     0.510567
p     0.475410     0.344262     0.510567
p     0.491803     0.114754     0.510567
p     0.508197     0.885246     0.510567
p     0.524590     0.655738     0.510567
p     0.540984     0.426230     0.510567
p     0.557377     0.196721     0.510567
p     0.573770     0.967213     0.510567
p     0.590164     0.737705     0.510567
p     0.606557     0.508197     0.510567
p     0.622951     0.278689     0.510567
p     0.639344     0.049180     0.510567
p     0.655738     0.819672     0.510567
p     0.672131     0.590164     0.510567
p     0.688525     0.360656     0.510567
p     0.704918     0.131148     0.510567
p     0.721311     0.901639     0.510567
p     0.737705     0.672131     0.510567
p     0.754098     0.442623     0.510567
p     0.770492     0.213115     0.510567
p     0.786885     0.983607     0.510567
p     0.803279     0.754098     0.510567
p     0.819672     0.524590     0.510567
p     0.836066     0.295082     0.510567
p     0.852459     0.065574     0.510567
p     0.868852     0.836066     0.510567
p     0.885246     0.606557     0.510567
p     0.901639     0.377049     0.510567
p     0.918033     0.147541     0.510567
p     0.934426     0.918033     0.510567
p     0.950820     0.688525     0.510567
p     0.967213     0.459016     0.510567
p     0.983607     0.229508     0.510567
p     0.005462     0.071040     0.582451
p     0.021851     0.284157     0.582451
p     0.038240     0.497274     0.582451
p     0.054649     0.710381     0.582451
p     0.071038     0.923499     0.582451
p     0.087427     0.136616     0.582451
p     0.103816     0.349733     0.582451
p     0.120225     0.562840     0.582451
p     0.136614     0.775958     0.582451
p     0.153003     0.989075     0.582451
p     0.169392     0.202192     0.582451
p     0.185781     0.415309     0.582451
p     0.202190     0.628416     0.582451
p     0.218580     0.841534     0.582451
p     0.234969     0.054651     0.582451
p     0.251358     0.267768     0.582451
p     0.267747     0.480885     0.582451
p     0.284156     0.693992     0.582451
p     0.300545     0.907110     0.582451
p     0.316934     0.120227     0.582451
p     0.333323     0.333344     0.582451
p     0.349732     0.546451     0.582451
p     0.366121     0.759569     0.582451
p     0.382510     0.972686     0.582451
p     0.398899     0.185803     0.582451
p     0.415288     0.398920     0.582451
p     0.431697     0.612027     0.582451
p     0.448086     0.825145     0.582451
p     0.464475     0.038262     0.582451
p     0.480864     0.251379     0.582451
p     0.497253     0.464496     0.582451
p     0.513662     0.677603     0.582451
p     0.530051     0.890721     0.582451
p     0.546450     0.103818     0.582451
p     0.562839     0.316935     0.582451
p     0.579248     0.530042     0.582451
p     0.595637     0.743160     0.582451
p     0.612026     0.956277     0.582451
p     0.628415     0.169394     0.582451
p     0.644804     0.382511     0.582451
p     0.661213     0.595618     0.582451
p     0.677602     0.808736     0.582451
p     0.693991     0.021853     0.582451
p     0.710380     0.234970     0.582451
p     0.726769     0.448087     0.582451
p     0.743178     0.661194     0.582451
p     0.759567     0.874312     0.582451
p     0.775956     0.087429     0.582451
p     0.792345     0.300546     0.582451
p     0.808754     0.513653     0.582451
p     0.825143     0.726770     0.582451
p     0.841532     0.939888     0.582451
p     0.857921     0.153005     0.582451
p     0.874310     0.366122     0.582451
p     0.890719     0.579229     0.582451
p     0.907108     0.792347     0.582451
p     0.923497     0.005464     0.582451
p     0.939886     0.218581     0.582451
p     0.956275     0.431698     0.582451
p     0.972684     0.644805     0.582451
p     0.989073     0.857923     0.582451
p     0.000000     0.000000     0.611276
p     0.016389     0.213117     0.611276
p     0.032778     0.426234     0.611276
p     0.049187     0.639342     0.611276
p     0.065576     0.852459     0.611276
p     0.081965     0.065576     0.611276
p     0.098354     0.278693     0.611276
p     0.114743     0.491810     0.611276
p     0.131152     0.704918     0.611276
p     0.147541     0.918035     0.611276
p     0.163930     0.131152     0.611276
p     0.180319     0.344269     0.611276
p     0.196728     0.557377     0.611276
p     0.213117     0.770494     0.611276
p     0.229506     0.983611     0.611276
p     0.245895     0.196728     0.611276
p     0.262284     0.409845     0.611276
p     0.278693     0.622953     0.611276
p     0.295082     0.836070     0.611276
p     0.311471     0.049187     0.611276
p     0.327860     0.262304     0.611276
p     0.344249     0.475421     0.611276
p     0.360658     0.688529     0.611276
p     0.377047     0.901646     0.611276
p     0.393436     0.114763     0.611276
p     0.409825     0.327880     0.611276
p     0.426234     0.540988     0.611276
p     0.442623     0.754105     0.611276
p     0.459012     0.967222     0.611276
p     0.475401     0.180339     0.611276
p     0.491790     0.393456     0.611276
p     0.508200     0.606564     0.611276
p     0.524589     0.819681     0.611276
p     0.540988     0.032778     0.611276
p     0.557377     0.245895     0.611276
p     0.573766     0.459012     0.611276
p     0.590175     0.672120     0.611276
p     0.606564     0.885237     0.611276
p     0.622953     0.098354     0.611276
p     0.639342     0.311471     0.611276
p     0.655751     0.524579     0.611276
p     0.672140     0.737696     0.611276
p     0.688529     0.950813     0.611276
p     0.704918     0.163930     0.611276
p     0.721307     0.377047     0.611276
p     0.737716     0.590155     0.611276
p     0.754105     0.803272     0.611276
p     0.770494     0.016389     0.611276
p     0.786883     0.229506     0.611276
p     0.803272     0.442623     0.611276
p     0.819681     0.655731     0.611276
p     0.836070     0.868848     0.611276
p     0.852459     0.081965     0.611276
p     0.868848     0.295082     0.611276
p     0.885257     0.508190     0.611276
p     0.901646     0.721307     0.611276
p     0.918035     0.934424     0.611276
p     0.934424     0.147541     0.611276
p     0.950813     0.360658     0.611276
p     0.967222     0.573766     0.611276
p     0.983611     0.786883     0.611276

K_POINTS automatic
8 8 1 1 1 1

CELL_PARAMETERS bohr
     49.047522        -3.146400  0.000000
     27.248623        40.903200  0.000000
     0.000000         0.000000   80.000000
