&control
 title='crystal',
 prefix='crystal',
 pseudo_dir='.',
 calculation='relax',
 etot_conv_thr=1.0D-5,
 forc_conv_thr=1.0D-4,
/
&system
 ibrav=0,
 nat= 268,
 ntyp= 1,
 ecutwfc=80.0,
 ecutrho=800.0,
 xdm=.true.,
 xdm_a1=0.6512,
 xdm_a2=1.4633,
/
&electrons
 conv_thr = 1d-8
/
&ions
/
&cell
/
ATOMIC_SPECIES
p     30.973761998 p.UPF

ATOMIC_POSITIONS crystal
p     0.009951     0.368159     0.481686
p     0.024876     0.920397     0.481686
p     0.039802     0.472636     0.481686
p     0.054727     0.024875     0.481686
p     0.069653     0.577114     0.481686
p     0.084578     0.129353     0.481686
p     0.099503     0.681591     0.481686
p     0.114429     0.233830     0.481686
p     0.129354     0.786069     0.481686
p     0.144279     0.338308     0.481686
p     0.159205     0.890547     0.481686
p     0.174130     0.442786     0.481686
p     0.189056     0.995024     0.481686
p     0.203981     0.547263     0.481686
p     0.218906     0.099502     0.481686
p     0.233832     0.651741     0.481686
p     0.248757     0.203980     0.481686
p     0.263682     0.756218     0.481686
p     0.278608     0.308457     0.481686
p     0.293533     0.860696     0.481686
p     0.308459     0.412935     0.481686
p     0.323384     0.965174     0.481686
p     0.338309     0.517412     0.481686
p     0.353235     0.069651     0.481686
p     0.368160     0.621890     0.481686
p     0.383085     0.174129     0.481686
p     0.398011     0.726368     0.481686
p     0.412936     0.278606     0.481686
p     0.427861     0.830845     0.481686
p     0.442787     0.383084     0.481686
p     0.457712     0.935323     0.481686
p     0.472638     0.487562     0.481686
p     0.487563     0.039800     0.481686
p     0.502488     0.592039     0.481686
p     0.517414     0.144278     0.481686
p     0.532339     0.696517     0.481686
p     0.547264     0.248756     0.481686
p     0.562190     0.800994     0.481686
p     0.577115     0.353233     0.481686
p     0.592041     0.905472     0.481686
p     0.606966     0.457711     0.481686
p     0.621891     0.009950     0.481686
p     0.636817     0.562189     0.481686
p     0.651742     0.114427     0.481686
p     0.666667     0.666666     0.481686
p     0.681593     0.218905     0.481686
p     0.696518     0.771144     0.481686
p     0.711444     0.323383     0.481686
p     0.726369     0.875621     0.481686
p     0.741294     0.427860     0.481686
p     0.756220     0.980099     0.481686
p     0.771145     0.532338     0.481686
p     0.786070     0.084577     0.481686
p     0.800996     0.636815     0.481686
p     0.815921     0.189054     0.481686
p     0.830847     0.741293     0.481686
p     0.845772     0.293532     0.481686
p     0.860697     0.845771     0.481686
p     0.875623     0.398009     0.481686
p     0.890548     0.950248     0.481686
p     0.905473     0.502487     0.481686
p     0.920399     0.054726     0.481686
p     0.935324     0.606965     0.481686
p     0.950250     0.159203     0.481686
p     0.965175     0.711442     0.481686
p     0.980100     0.263681     0.481686
p     0.995026     0.815920     0.481686
p     0.000000     0.000000     0.510567
p     0.014925     0.552239     0.510567
p     0.029851     0.104478     0.510567
p     0.044776     0.656716     0.510567
p     0.059701     0.208955     0.510567
p     0.074627     0.761194     0.510567
p     0.089552     0.313433     0.510567
p     0.104478     0.865672     0.510567
p     0.119403     0.417910     0.510567
p     0.134328     0.970149     0.510567
p     0.149254     0.522388     0.510567
p     0.164179     0.074627     0.510567
p     0.179104     0.626866     0.510567
p     0.194030     0.179104     0.510567
p     0.208955     0.731343     0.510567
p     0.223881     0.283582     0.510567
p     0.238806     0.835821     0.510567
p     0.253731     0.388060     0.510567
p     0.268657     0.940299     0.510567
p     0.283582     0.492537     0.510567
p     0.298507     0.044776     0.510567
p     0.313433     0.597015     0.510567
p     0.328358     0.149254     0.510567
p     0.343284     0.701493     0.510567
p     0.358209     0.253731     0.510567
p     0.373134     0.805970     0.510567
p     0.388060     0.358209     0.510567
p     0.402985     0.910448     0.510567
p     0.417910     0.462687     0.510567
p     0.432836     0.014925     0.510567
p     0.447761     0.567164     0.510567
p     0.462687     0.119403     0.510567
p     0.477612     0.671642     0.510567
p     0.492537     0.223881     0.510567
p     0.507463     0.776119     0.510567
p     0.522388     0.328358     0.510567
p     0.537313     0.880597     0.510567
p     0.552239     0.432836     0.510567
p     0.567164     0.985075     0.510567
p     0.582090     0.537313     0.510567
p     0.597015     0.089552     0.510567
p     0.611940     0.641791     0.510567
p     0.626866     0.194030     0.510567
p     0.641791     0.746269     0.510567
p     0.656716     0.298507     0.510567
p     0.671642     0.850746     0.510567
p     0.686567     0.402985     0.510567
p     0.701493     0.955224     0.510567
p     0.716418     0.507463     0.510567
p     0.731343     0.059701     0.510567
p     0.746269     0.611940     0.510567
p     0.761194     0.164179     0.510567
p     0.776119     0.716418     0.510567
p     0.791045     0.268657     0.510567
p     0.805970     0.820896     0.510567
p     0.820896     0.373134     0.510567
p     0.835821     0.925373     0.510567
p     0.850746     0.477612     0.510567
p     0.865672     0.029851     0.510567
p     0.880597     0.582090     0.510567
p     0.895522     0.134328     0.510567
p     0.910448     0.686567     0.510567
p     0.925373     0.238806     0.510567
p     0.940299     0.791045     0.510567
p     0.955224     0.343284     0.510567
p     0.970149     0.895522     0.510567
p     0.985075     0.447761     0.510567
p     0.009929     0.621901     0.582451
p     0.024879     0.054724     0.582451
p     0.039828     0.487548     0.582451
p     0.054723     0.920398     0.582451
p     0.069672     0.353221     0.582451
p     0.084567     0.786072     0.582451
p     0.099517     0.218895     0.582451
p     0.114411     0.651745     0.582451
p     0.129361     0.084569     0.582451
p     0.144256     0.517419     0.582451
p     0.159205     0.950242     0.582451
p     0.174154     0.383065     0.582451
p     0.189049     0.815916     0.582451
p     0.203999     0.248739     0.582451
p     0.218894     0.681590     0.582451
p     0.233843     0.114413     0.582451
p     0.248738     0.547263     0.582451
p     0.263687     0.980087     0.582451
p     0.278636     0.412910     0.582451
p     0.293531     0.845760     0.582451
p     0.308481     0.278583     0.582451
p     0.323376     0.711434     0.582451
p     0.338325     0.144257     0.582451
p     0.353220     0.577108     0.582451
p     0.368169     0.009931     0.582451
p     0.383119     0.442754     0.582451
p     0.398013     0.875604     0.582451
p     0.412963     0.308428     0.582451
p     0.427858     0.741278     0.582451
p     0.442807     0.174101     0.582451
p     0.457702     0.606952     0.582451
p     0.472651     0.039775     0.582451
p     0.487601     0.472598     0.582451
p     0.502496     0.905449     0.582451
p     0.517445     0.338272     0.582451
p     0.532313     0.771177     0.582451
p     0.547262     0.204000     0.582451
p     0.562157     0.636850     0.582451
p     0.577106     0.069674     0.582451
p     0.592055     0.502497     0.582451
p     0.606950     0.935347     0.582451
p     0.621900     0.368171     0.582451
p     0.636795     0.801021     0.582451
p     0.651744     0.233844     0.582451
p     0.666639     0.666695     0.582451
p     0.681588     0.099518     0.582451
p     0.696483     0.532368     0.582451
p     0.711433     0.965192     0.582451
p     0.726382     0.398015     0.582451
p     0.741277     0.830865     0.582451
p     0.756226     0.263688     0.582451
p     0.771121     0.696539     0.582451
p     0.786070     0.129362     0.582451
p     0.800965     0.562213     0.582451
p     0.815915     0.995036     0.582451
p     0.830864     0.427859     0.582451
p     0.845759     0.860709     0.582451
p     0.860708     0.293533     0.582451
p     0.875603     0.726383     0.582451
p     0.890552     0.159206     0.582451
p     0.905447     0.592057     0.582451
p     0.920397     0.024880     0.582451
p     0.935346     0.457703     0.582451
p     0.950241     0.890554     0.582451
p     0.965190     0.323377     0.582451
p     0.980085     0.756227     0.582451
p     0.995034     0.189051     0.582451
p     0.000000     0.000000     0.611276
p     0.014949     0.432823     0.611276
p     0.029844     0.865674     0.611276
p     0.044794     0.298497     0.611276
p     0.059689     0.731347     0.611276
p     0.074638     0.164171     0.611276
p     0.089533     0.597021     0.611276
p     0.104482     0.029844     0.611276
p     0.119431     0.462667     0.611276
p     0.134326     0.895518     0.611276
p     0.149276     0.328341     0.611276
p     0.164171     0.761192     0.611276
p     0.179120     0.194015     0.611276
p     0.194015     0.626865     0.611276
p     0.208964     0.059689     0.611276
p     0.223913     0.492512     0.611276
p     0.238808     0.925362     0.611276
p     0.253758     0.358185     0.611276
p     0.268653     0.791036     0.611276
p     0.283602     0.223859     0.611276
p     0.298497     0.656710     0.611276
p     0.313446     0.089533     0.611276
p     0.328341     0.522383     0.611276
p     0.343290     0.955206     0.611276
p     0.358240     0.388030     0.611276
p     0.373135     0.820880     0.611276
p     0.388084     0.253703     0.611276
p     0.402979     0.686554     0.611276
p     0.417928     0.119377     0.611276
p     0.432823     0.552227     0.611276
p     0.447773     0.985051     0.611276
p     0.462722     0.417874     0.611276
p     0.477617     0.850724     0.611276
p     0.492566     0.283548     0.611276
p     0.507461     0.716398     0.611276
p     0.522410     0.149221     0.611276
p     0.537278     0.582126     0.611276
p     0.552227     0.014949     0.611276
p     0.567177     0.447773     0.611276
p     0.582072     0.880623     0.611276
p     0.597021     0.313446     0.611276
p     0.611916     0.746297     0.611276
p     0.626865     0.179120     0.611276
p     0.641760     0.611970     0.611276
p     0.656710     0.044794     0.611276
p     0.671659     0.477617     0.611276
p     0.686554     0.910467     0.611276
p     0.701503     0.343290     0.611276
p     0.716398     0.776141     0.611276
p     0.731347     0.208964     0.611276
p     0.746242     0.641815     0.611276
p     0.761192     0.074638     0.611276
p     0.776141     0.507461     0.611276
p     0.791036     0.940311     0.611276
p     0.805985     0.373135     0.611276
p     0.820880     0.805985     0.611276
p     0.835829     0.238808     0.611276
p     0.850724     0.671659     0.611276
p     0.865674     0.104482     0.611276
p     0.880569     0.537333     0.611276
p     0.895518     0.970156     0.611276
p     0.910467     0.402979     0.611276
p     0.925362     0.835829     0.611276
p     0.940311     0.268653     0.611276
p     0.955206     0.701503     0.611276
p     0.970156     0.134326     0.611276
p     0.985051     0.567177     0.611276

K_POINTS automatic
8 8 1 1 1 1

CELL_PARAMETERS bohr
     49.047522        -15.732000  0.000000
     38.148073        34.610400   0.000000
     0.000000         0.000000    80.000000
