&control
 title='crystal',
 prefix='crystal',
 pseudo_dir='.',
 calculation='relax',
 etot_conv_thr=1.0D-5,
 forc_conv_thr=1.0D-4,
/
&system
 ibrav=0,
 nat= 28,
 ntyp= 1,
 ecutwfc=80.0,
 ecutrho=800.0,
 xdm=.true.,
 xdm_a1=0.6512,
 xdm_a2=1.4633,
/
&electrons
 conv_thr = 1d-8
/
&ions
/
&cell
/
ATOMIC_SPECIES
p     30.973761998 p.UPF

ATOMIC_POSITIONS crystal
p     0.047621     0.761903     0.481686
p     0.190479     0.047617     0.481686
p     0.333336     0.333331     0.481686
p     0.476193     0.619046     0.481686
p     0.619050     0.904760     0.481686
p     0.761907     0.190474     0.481686
p     0.904764     0.476189     0.481686
p     0.000000     0.000000     0.510567
p     0.142857     0.285714     0.510567
p     0.285714     0.571429     0.510567
p     0.428571     0.857143     0.510567
p     0.571429     0.142857     0.510567
p     0.714286     0.428571     0.510567
p     0.857143     0.714286     0.510567
p     0.047631     0.190469     0.582451
p     0.190465     0.761903     0.582451
p     0.333364     0.333303     0.582451
p     0.476198     0.904737     0.582451
p     0.618999     0.476234     0.582451
p     0.761898     0.047635     0.582451
p     0.904732     0.619068     0.582451
p     0.000000     0.000000     0.611276
p     0.142834     0.571433     0.611276
p     0.285733     0.142834     0.611276
p     0.428567     0.714267     0.611276
p     0.571433     0.285733     0.611276
p     0.714267     0.857166     0.611276
p     0.857101     0.428599     0.611276

K_POINTS automatic
8 8 1 1 1 1

CELL_PARAMETERS bohr
     16.349174        -3.146400  0.000000
     10.899449        12.585600  0.000000
     0.000000         0.000000   80.000000
