&control
 title='crystal',
 prefix='crystal',
 pseudo_dir='.',
 calculation='relax',
 etot_conv_thr=1.0D-5,
 forc_conv_thr=1.0D-4,
/
&system
 ibrav=0,
 nat= 364,
 ntyp= 1,
 ecutwfc=80.0,
 ecutrho=800.0,
 xdm=.true.,
 xdm_a1=0.6512,
 xdm_a2=1.4633,
/
&electrons
 conv_thr = 1d-8
/
&ions
/
&cell
/
ATOMIC_SPECIES
p     30.973761998 p.UPF

ATOMIC_POSITIONS crystal
p     0.003664     0.937728     0.481686
p     0.014653     0.750915     0.481686
p     0.025642     0.564102     0.481686
p     0.036631     0.377289     0.481686
p     0.047620     0.190476     0.481686
p     0.058609     0.003662     0.481686
p     0.069598     0.816849     0.481686
p     0.080587     0.630036     0.481686
p     0.091576     0.443223     0.481686
p     0.102565     0.256410     0.481686
p     0.113554     0.069596     0.481686
p     0.124543     0.882783     0.481686
p     0.135532     0.695970     0.481686
p     0.146521     0.509157     0.481686
p     0.157510     0.322344     0.481686
p     0.168499     0.135531     0.481686
p     0.179488     0.948717     0.481686
p     0.190477     0.761904     0.481686
p     0.201466     0.575091     0.481686
p     0.212455     0.388278     0.481686
p     0.223444     0.201465     0.481686
p     0.234433     0.014651     0.481686
p     0.245422     0.827838     0.481686
p     0.256411     0.641025     0.481686
p     0.267400     0.454212     0.481686
p     0.278389     0.267399     0.481686
p     0.289378     0.080585     0.481686
p     0.300367     0.893772     0.481686
p     0.311356     0.706959     0.481686
p     0.322345     0.520146     0.481686
p     0.333334     0.333333     0.481686
p     0.344323     0.146520     0.481686
p     0.355312     0.959706     0.481686
p     0.366301     0.772893     0.481686
p     0.377290     0.586080     0.481686
p     0.388279     0.399267     0.481686
p     0.399268     0.212454     0.481686
p     0.410257     0.025640     0.481686
p     0.421246     0.838827     0.481686
p     0.432235     0.652014     0.481686
p     0.443224     0.465201     0.481686
p     0.454213     0.278388     0.481686
p     0.465202     0.091575     0.481686
p     0.476191     0.904761     0.481686
p     0.487180     0.717948     0.481686
p     0.498169     0.531135     0.481686
p     0.509158     0.344322     0.481686
p     0.520147     0.157509     0.481686
p     0.531136     0.970695     0.481686
p     0.542125     0.783882     0.481686
p     0.553114     0.597069     0.481686
p     0.564103     0.410256     0.481686
p     0.575092     0.223443     0.481686
p     0.586081     0.036629     0.481686
p     0.597070     0.849816     0.481686
p     0.608059     0.663003     0.481686
p     0.619048     0.476190     0.481686
p     0.630037     0.289377     0.481686
p     0.641026     0.102564     0.481686
p     0.652015     0.915750     0.481686
p     0.663004     0.728937     0.481686
p     0.673993     0.542124     0.481686
p     0.684982     0.355311     0.481686
p     0.695971     0.168498     0.481686
p     0.706960     0.981684     0.481686
p     0.717949     0.794871     0.481686
p     0.728938     0.608058     0.481686
p     0.739927     0.421245     0.481686
p     0.750916     0.234432     0.481686
p     0.761905     0.047618     0.481686
p     0.772894     0.860805     0.481686
p     0.783883     0.673992     0.481686
p     0.794872     0.487179     0.481686
p     0.805861     0.300366     0.481686
p     0.816850     0.113553     0.481686
p     0.827839     0.926739     0.481686
p     0.838828     0.739926     0.481686
p     0.849817     0.553113     0.481686
p     0.860806     0.366300     0.481686
p     0.871795     0.179487     0.481686
p     0.882785     0.992673     0.481686
p     0.893774     0.805860     0.481686
p     0.904763     0.619047     0.481686
p     0.915752     0.432234     0.481686
p     0.926741     0.245421     0.481686
p     0.937730     0.058607     0.481686
p     0.948719     0.871794     0.481686
p     0.959708     0.684981     0.481686
p     0.970697     0.498168     0.481686
p     0.981686     0.311355     0.481686
p     0.992675     0.124542     0.481686
p     0.000000     0.000000     0.510567
p     0.010989     0.813187     0.510567
p     0.021978     0.626374     0.510567
p     0.032967     0.439560     0.510567
p     0.043956     0.252747     0.510567
p     0.054945     0.065934     0.510567
p     0.065934     0.879121     0.510567
p     0.076923     0.692308     0.510567
p     0.087912     0.505495     0.510567
p     0.098901     0.318681     0.510567
p     0.109890     0.131868     0.510567
p     0.120879     0.945055     0.510567
p     0.131868     0.758242     0.510567
p     0.142857     0.571429     0.510567
p     0.153846     0.384615     0.510567
p     0.164835     0.197802     0.510567
p     0.175824     0.010989     0.510567
p     0.186813     0.824176     0.510567
p     0.197802     0.637363     0.510567
p     0.208791     0.450549     0.510567
p     0.219780     0.263736     0.510567
p     0.230769     0.076923     0.510567
p     0.241758     0.890110     0.510567
p     0.252747     0.703297     0.510567
p     0.263736     0.516484     0.510567
p     0.274725     0.329670     0.510567
p     0.285714     0.142857     0.510567
p     0.296703     0.956044     0.510567
p     0.307692     0.769231     0.510567
p     0.318681     0.582418     0.510567
p     0.329670     0.395604     0.510567
p     0.340659     0.208791     0.510567
p     0.351648     0.021978     0.510567
p     0.362637     0.835165     0.510567
p     0.373626     0.648352     0.510567
p     0.384615     0.461538     0.510567
p     0.395604     0.274725     0.510567
p     0.406593     0.087912     0.510567
p     0.417582     0.901099     0.510567
p     0.428571     0.714286     0.510567
p     0.439560     0.527473     0.510567
p     0.450549     0.340659     0.510567
p     0.461538     0.153846     0.510567
p     0.472527     0.967033     0.510567
p     0.483516     0.780220     0.510567
p     0.494505     0.593407     0.510567
p     0.505495     0.406593     0.510567
p     0.516484     0.219780     0.510567
p     0.527473     0.032967     0.510567
p     0.538462     0.846154     0.510567
p     0.549451     0.659341     0.510567
p     0.560440     0.472527     0.510567
p     0.571429     0.285714     0.510567
p     0.582418     0.098901     0.510567
p     0.593407     0.912088     0.510567
p     0.604396     0.725275     0.510567
p     0.615385     0.538462     0.510567
p     0.626374     0.351648     0.510567
p     0.637363     0.164835     0.510567
p     0.648352     0.978022     0.510567
p     0.659341     0.791209     0.510567
p     0.670330     0.604396     0.510567
p     0.681319     0.417582     0.510567
p     0.692308     0.230769     0.510567
p     0.703297     0.043956     0.510567
p     0.714286     0.857143     0.510567
p     0.725275     0.670330     0.510567
p     0.736264     0.483516     0.510567
p     0.747253     0.296703     0.510567
p     0.758242     0.109890     0.510567
p     0.769231     0.923077     0.510567
p     0.780220     0.736264     0.510567
p     0.791209     0.549451     0.510567
p     0.802198     0.362637     0.510567
p     0.813187     0.175824     0.510567
p     0.824176     0.989011     0.510567
p     0.835165     0.802198     0.510567
p     0.846154     0.615385     0.510567
p     0.857143     0.428571     0.510567
p     0.868132     0.241758     0.510567
p     0.879121     0.054945     0.510567
p     0.890110     0.868132     0.510567
p     0.901099     0.681319     0.510567
p     0.912088     0.494505     0.510567
p     0.923077     0.307692     0.510567
p     0.934066     0.120879     0.510567
p     0.945055     0.934066     0.510567
p     0.956044     0.747253     0.510567
p     0.967033     0.560440     0.510567
p     0.978022     0.373626     0.510567
p     0.989011     0.186813     0.510567
p     0.003664     0.058608     0.582451
p     0.014656     0.234430     0.582451
p     0.025649     0.410252     0.582451
p     0.036621     0.586085     0.582451
p     0.047614     0.761907     0.582451
p     0.058607     0.937729     0.582451
p     0.069600     0.113551     0.582451
p     0.080592     0.289373     0.582451
p     0.091585     0.465195     0.582451
p     0.102557     0.641028     0.582451
p     0.113550     0.816850     0.582451
p     0.124543     0.992672     0.582451
p     0.135535     0.168494     0.582451
p     0.146528     0.344316     0.582451
p     0.157500     0.520149     0.582451
p     0.168493     0.695971     0.582451
p     0.179486     0.871793     0.582451
p     0.190479     0.047615     0.582451
p     0.201471     0.223437     0.582451
p     0.212464     0.399260     0.582451
p     0.223436     0.575092     0.582451
p     0.234429     0.750914     0.582451
p     0.245422     0.926736     0.582451
p     0.256414     0.102558     0.582451
p     0.267407     0.278381     0.582451
p     0.278400     0.454203     0.582451
p     0.289372     0.630035     0.582451
p     0.300365     0.805857     0.582451
p     0.311358     0.981679     0.582451
p     0.322350     0.157502     0.582451
p     0.333343     0.333324     0.582451
p     0.344315     0.509156     0.582451
p     0.355308     0.684978     0.582451
p     0.366301     0.860800     0.582451
p     0.377293     0.036623     0.582451
p     0.388286     0.212445     0.582451
p     0.399279     0.388267     0.582451
p     0.410251     0.564099     0.582451
p     0.421244     0.739921     0.582451
p     0.432237     0.915744     0.582451
p     0.443229     0.091566     0.582451
p     0.454222     0.267388     0.582451
p     0.465215     0.443210     0.582451
p     0.476187     0.619042     0.582451
p     0.487180     0.794865     0.582451
p     0.498172     0.970687     0.582451
p     0.509155     0.146529     0.582451
p     0.520148     0.322351     0.582451
p     0.531120     0.498184     0.582451
p     0.542113     0.674006     0.582451
p     0.553105     0.849828     0.582451
p     0.564098     0.025650     0.582451
p     0.575091     0.201472     0.582451
p     0.586083     0.377295     0.582451
p     0.597056     0.553127     0.582451
p     0.608048     0.728949     0.582451
p     0.619041     0.904771     0.582451
p     0.630034     0.080593     0.582451
p     0.641027     0.256416     0.582451
p     0.652019     0.432238     0.582451
p     0.662992     0.608070     0.582451
p     0.673984     0.783892     0.582451
p     0.684977     0.959714     0.582451
p     0.695970     0.135537     0.582451
p     0.706962     0.311359     0.582451
p     0.717935     0.487191     0.582451
p     0.728927     0.663013     0.582451
p     0.739920     0.838835     0.582451
p     0.750913     0.014658     0.582451
p     0.761906     0.190480     0.582451
p     0.772898     0.366302     0.582451
p     0.783871     0.542134     0.582451
p     0.794863     0.717956     0.582451
p     0.805856     0.893779     0.582451
p     0.816849     0.069601     0.582451
p     0.827842     0.245423     0.582451
p     0.838834     0.421245     0.582451
p     0.849806     0.597077     0.582451
p     0.860799     0.772900     0.582451
p     0.871792     0.948722     0.582451
p     0.882785     0.124544     0.582451
p     0.893777     0.300366     0.582451
p     0.904750     0.476198     0.582451
p     0.915742     0.652021     0.582451
p     0.926735     0.827843     0.582451
p     0.937728     0.003665     0.582451
p     0.948721     0.179487     0.582451
p     0.959713     0.355309     0.582451
p     0.970685     0.531142     0.582451
p     0.981678     0.706964     0.582451
p     0.992671     0.882786     0.582451
p     0.000000     0.000000     0.611276
p     0.010993     0.175822     0.611276
p     0.021985     0.351644     0.611276
p     0.032958     0.527477     0.611276
p     0.043950     0.703299     0.611276
p     0.054943     0.879121     0.611276
p     0.065936     0.054943     0.611276
p     0.076929     0.230765     0.611276
p     0.087921     0.406587     0.611276
p     0.098894     0.582420     0.611276
p     0.109886     0.758242     0.611276
p     0.120879     0.934064     0.611276
p     0.131872     0.109886     0.611276
p     0.142864     0.285708     0.611276
p     0.153857     0.461531     0.611276
p     0.164829     0.637363     0.611276
p     0.175822     0.813185     0.611276
p     0.186815     0.989007     0.611276
p     0.197808     0.164829     0.611276
p     0.208800     0.340652     0.611276
p     0.219773     0.516484     0.611276
p     0.230765     0.692306     0.611276
p     0.241758     0.868128     0.611276
p     0.252751     0.043950     0.611276
p     0.263743     0.219773     0.611276
p     0.274736     0.395595     0.611276
p     0.285708     0.571427     0.611276
p     0.296701     0.747249     0.611276
p     0.307694     0.923071     0.611276
p     0.318687     0.098894     0.611276
p     0.329679     0.274716     0.611276
p     0.340672     0.450538     0.611276
p     0.351644     0.626370     0.611276
p     0.362637     0.802192     0.611276
p     0.373630     0.978015     0.611276
p     0.384622     0.153837     0.611276
p     0.395615     0.329659     0.611276
p     0.406587     0.505491     0.611276
p     0.417580     0.681313     0.611276
p     0.428573     0.857136     0.611276
p     0.439566     0.032958     0.611276
p     0.450558     0.208780     0.611276
p     0.461551     0.384602     0.611276
p     0.472523     0.560434     0.611276
p     0.483516     0.736257     0.611276
p     0.494509     0.912079     0.611276
p     0.505491     0.087921     0.611276
p     0.516484     0.263743     0.611276
p     0.527477     0.439566     0.611276
p     0.538449     0.615398     0.611276
p     0.549442     0.791220     0.611276
p     0.560434     0.967042     0.611276
p     0.571427     0.142864     0.611276
p     0.582420     0.318687     0.611276
p     0.593392     0.494519     0.611276
p     0.604385     0.670341     0.611276
p     0.615378     0.846163     0.611276
p     0.626370     0.021985     0.611276
p     0.637363     0.197808     0.611276
p     0.648356     0.373630     0.611276
p     0.659328     0.549462     0.611276
p     0.670321     0.725284     0.611276
p     0.681313     0.901106     0.611276
p     0.692306     0.076929     0.611276
p     0.703299     0.252751     0.611276
p     0.714292     0.428573     0.611276
p     0.725264     0.604405     0.611276
p     0.736257     0.780227     0.611276
p     0.747249     0.956050     0.611276
p     0.758242     0.131872     0.611276
p     0.769235     0.307694     0.611276
p     0.780207     0.483526     0.611276
p     0.791200     0.659348     0.611276
p     0.802192     0.835171     0.611276
p     0.813185     0.010993     0.611276
p     0.824178     0.186815     0.611276
p     0.835171     0.362637     0.611276
p     0.846143     0.538469     0.611276
p     0.857136     0.714292     0.611276
p     0.868128     0.890114     0.611276
p     0.879121     0.065936     0.611276
p     0.890114     0.241758     0.611276
p     0.901106     0.417580     0.611276
p     0.912079     0.593413     0.611276
p     0.923071     0.769235     0.611276
p     0.934064     0.945057     0.611276
p     0.945057     0.120879     0.611276
p     0.956050     0.296701     0.611276
p     0.967022     0.472534     0.611276
p     0.978015     0.648356     0.611276
p     0.989007     0.824178     0.611276

K_POINTS automatic
8 8 1 1 1 1

CELL_PARAMETERS bohr
     59.946971        -3.146400  0.000000
     32.698348        50.342400  0.000000
     0.000000         0.000000   80.000000
