&control
 title='crystal',
 prefix='crystal',
 pseudo_dir='.',
 calculation='relax',
 etot_conv_thr=1.0D-5,
 forc_conv_thr=1.0D-4,
/
&system
 ibrav=0,
 nat= 52,
 ntyp= 1,
 ecutwfc=80.0,
 ecutrho=800.0,
 xdm=.true.,
 xdm_a1=0.6512,
 xdm_a2=1.4633,
/
&electrons
 conv_thr = 1d-8
/
&ions
/
&cell
/
ATOMIC_SPECIES
p     30.973761998 p.UPF

ATOMIC_POSITIONS crystal
p     0.051284     0.820512     0.481686
p     0.128207     0.051281     0.481686
p     0.205130     0.282050     0.481686
p     0.282053     0.512819     0.481686
p     0.358976     0.743588     0.481686
p     0.435899     0.974358     0.481686
p     0.512822     0.205127     0.481686
p     0.589745     0.435896     0.481686
p     0.666668     0.666665     0.481686
p     0.743592     0.897435     0.481686
p     0.820515     0.128204     0.481686
p     0.897438     0.358973     0.481686
p     0.974361     0.589742     0.481686
p     0.000000     0.000000     0.510567
p     0.076923     0.230769     0.510567
p     0.153846     0.461538     0.510567
p     0.230769     0.692308     0.510567
p     0.307692     0.923077     0.510567
p     0.384615     0.153846     0.510567
p     0.461538     0.384615     0.510567
p     0.538462     0.615385     0.510567
p     0.615385     0.846154     0.510567
p     0.692308     0.076923     0.510567
p     0.769231     0.307692     0.510567
p     0.846154     0.538462     0.510567
p     0.923077     0.769231     0.510567
p     0.051268     0.128217     0.582451
p     0.128214     0.820518     0.582451
p     0.205074     0.512862     0.582451
p     0.282021     0.205163     0.582451
p     0.358967     0.897464     0.582451
p     0.435955     0.589680     0.582451
p     0.512816     0.282024     0.582451
p     0.589762     0.974325     0.582451
p     0.666708     0.666626     0.582451
p     0.743569     0.358970     0.582451
p     0.820515     0.051271     0.582451
p     0.897461     0.743572     0.582451
p     0.974322     0.435916     0.582451
p     0.000000     0.000000     0.611276
p     0.076946     0.692301     0.611276
p     0.153807     0.384645     0.611276
p     0.230753     0.076946     0.611276
p     0.307699     0.769247     0.611276
p     0.384560     0.461591     0.611276
p     0.461548     0.153807     0.611276
p     0.538494     0.846108     0.611276
p     0.615355     0.538452     0.611276
p     0.692301     0.230753     0.611276
p     0.769247     0.923054     0.611276
p     0.846193     0.615355     0.611276
p     0.923054     0.307699     0.611276

K_POINTS automatic
8 8 1 1 1 1

CELL_PARAMETERS bohr
     21.798899        -6.292800  0.000000
     16.349174        15.732000  0.000000
     0.000000         0.000000   80.000000
