&control
 title='crystal',
 prefix='crystal',
 pseudo_dir='.',
 calculation='relax',
 etot_conv_thr=1.0D-5,
 forc_conv_thr=1.0D-4,
/
&system
 ibrav=0,
 nat= 76,
 ntyp= 1,
 ecutwfc=80.0,
 ecutrho=800.0,
 xdm=.true.,
 xdm_a1=0.6512,
 xdm_a2=1.4633,
/
&electrons
 conv_thr = 1d-8
/
&ions
/
&cell
/
ATOMIC_SPECIES
p     30.973761998 p.UPF

ATOMIC_POSITIONS crystal
p     0.017545     0.859648     0.481686
p     0.070177     0.438595     0.481686
p     0.122808     0.017543     0.481686
p     0.175440     0.596490     0.481686
p     0.228072     0.175437     0.481686
p     0.280703     0.754385     0.481686
p     0.333335     0.333332     0.481686
p     0.385966     0.912279     0.481686
p     0.438598     0.491227     0.481686
p     0.491229     0.070174     0.481686
p     0.543861     0.649122     0.481686
p     0.596493     0.228069     0.481686
p     0.649124     0.807016     0.481686
p     0.701756     0.385964     0.481686
p     0.754387     0.964911     0.481686
p     0.807019     0.543858     0.481686
p     0.859651     0.122806     0.481686
p     0.912282     0.701753     0.481686
p     0.964914     0.280701     0.481686
p     0.000000     0.000000     0.510567
p     0.052632     0.578947     0.510567
p     0.105263     0.157895     0.510567
p     0.157895     0.736842     0.510567
p     0.210526     0.315789     0.510567
p     0.263158     0.894737     0.510567
p     0.315789     0.473684     0.510567
p     0.368421     0.052632     0.510567
p     0.421053     0.631579     0.510567
p     0.473684     0.210526     0.510567
p     0.526316     0.789474     0.510567
p     0.578947     0.368421     0.510567
p     0.631579     0.947368     0.510567
p     0.684211     0.526316     0.510567
p     0.736842     0.105263     0.510567
p     0.789474     0.684211     0.510567
p     0.842105     0.263158     0.510567
p     0.894737     0.842105     0.510567
p     0.947368     0.421053     0.510567
p     0.017533     0.122814     0.582451
p     0.070137     0.491252     0.582451
p     0.122811     0.859654     0.582451
p     0.175415     0.228092     0.582451
p     0.228090     0.596495     0.582451
p     0.280693     0.964933     0.582451
p     0.333296     0.333371     0.582451
p     0.385971     0.701773     0.582451
p     0.438575     0.070211     0.582451
p     0.491178     0.438649     0.582451
p     0.543853     0.807051     0.582451
p     0.596492     0.175417     0.582451
p     0.649167     0.543820     0.582451
p     0.701770     0.912258     0.582451
p     0.754373     0.280696     0.582451
p     0.807048     0.649098     0.582451
p     0.859652     0.017536     0.582451
p     0.912255     0.385974     0.582451
p     0.964930     0.754376     0.582451
p     0.000000     0.000000     0.611276
p     0.052603     0.368438     0.611276
p     0.105278     0.736840     0.611276
p     0.157882     0.105278     0.611276
p     0.210485     0.473716     0.611276
p     0.263160     0.842118     0.611276
p     0.315763     0.210556     0.611276
p     0.368438     0.578959     0.611276
p     0.421041     0.947397     0.611276
p     0.473645     0.315835     0.611276
p     0.526320     0.684237     0.611276
p     0.578959     0.052603     0.611276
p     0.631562     0.421041     0.611276
p     0.684237     0.789444     0.611276
p     0.736840     0.157882     0.611276
p     0.789515     0.526284     0.611276
p     0.842118     0.894722     0.611276
p     0.894722     0.263160     0.611276
p     0.947397     0.631562     0.611276

K_POINTS automatic
8 8 1 1 1 1

CELL_PARAMETERS bohr
     27.248623        -3.146400  0.000000
     16.349174        22.024800  0.000000
     0.000000         0.000000   80.000000
