&control
 title='crystal'
 prefix='crystal'
 pseudo_dir='.'
 calculation='relax'
 etot_conv_thr=1.0D-5
 forc_conv_thr=1.0D-4
/
&system
 ibrav=0
 nat = 28
 ntyp= 1
 ecutwfc=80.0
 ecutrho=800.0
 vdw_corr= 'xdm'
/
&electrons
 conv_thr = 1d-8
/
&ions
/
&cell
/
ATOMIC_SPECIES
c     12.011 c.UPF

ATOMIC_POSITIONS crystal
c      0.047617     0.190479     0.000000
c      0.190474     0.761907     0.000000
c      0.333331     0.333336     0.000000
c      0.476189     0.904764     0.000000
c      0.619046     0.476193     0.000000
c      0.761903     0.047621     0.000000
c      0.904760     0.619050     0.000000
c      0.000000     0.000000     0.005000
c      0.142857     0.571429     0.005000
c      0.285714     0.142857     0.005000
c      0.428571     0.714286     0.005000
c      0.571429     0.285714     0.005000
c      0.714286     0.857143     0.005000
c      0.857143     0.428571     0.005000
c      0.047617     0.761904     0.500000
c      0.190474     0.047619     0.500000
c      0.333331     0.333333     0.500000
c      0.476189     0.619047     0.500000
c      0.619046     0.904761     0.500000
c      0.761903     0.190476     0.500000
c      0.904760     0.476190     0.500000
c      0.000000     0.000000     0.505000
c      0.142857     0.285714     0.505000
c      0.285714     0.571429     0.505000
c      0.428571     0.857143     0.505000
c      0.571429     0.142857     0.505000
c      0.714286     0.428571     0.505000
c      0.857143     0.714286     0.505000

K_POINTS automatic
8 8 1 1 1 1

CELL_PARAMETERS bohr
       8.084560518857    9.335246383684    0.000000000000
      12.126840778286   -2.333811595921    0.000000000000
       0.000000000000    0.000000000000   12.831239462594
